#=======================================================
# FHI-aims file: geometry.in.supercell
# Created using the Atomic Simulation Environment (ASE)
# Wed Feb 16 09:25:53 2022

# Additional information:
#  Number of atoms:     52
#=======================================================
lattice_vector 9.8416516200000004 -0.1209269600000000 -0.1172174400000000 
lattice_vector -0.1229225700000000 9.8469095800000002 -0.1183362900000000 
lattice_vector -0.1119270400000000 -0.1136456700000000 9.9519968700000003 
atom 2.1404995687240906 2.0871223530647400 0.1994479353297530 Li
atom 3.0678825433100094 1.9339369560697999 4.6383768740096709 Li
atom 1.6061637129959001 4.6225455946562892 3.0463653386269001 Li
atom 2.3205186541253702 0.1871792446189760 2.2760048491807900 Li
atom 0.1339604338492350 1.8781934872985497 2.0450058132008802 Li
atom 4.5443198384745989 3.0869535475911798 1.8045586492789303 Li
atom 1.9649912186565699 7.0025484891602092 5.1138135820289712 Li
atom 1.8208550880954699 7.9353606497486480 9.5527628066227823 Li
atom 2.9718702398419001 9.4062377653084379 6.7137891294369609 Li
atom 1.7610164788586502 4.9968292037921200 6.9578670261629298 Li
atom 0.0700171743038279 7.1860282216753495 7.1970889726310796 Li
atom 4.5040639674279301 6.4709064534294791 7.9713387556519910 Li
atom 6.9425644212548310 2.0149097864150698 5.1157767889255696 Li
atom 6.8082839811078308 2.9517717558837595 9.5556135930379025 Li
atom 7.9534452741058201 4.4206242769620587 6.7118931397199706 Li
atom 6.7445904926153002 0.0141080857405952 6.9614356652025897 Li
atom 5.0542018151323198 2.2093045974247394 7.2050659791954512 Li
atom 9.4898317633132994 1.4866422716718697 7.9667765379947220 Li
atom 6.9989408649434202 6.9492788680067790 0.0799231840930344 Li
atom 7.9241918370747397 6.7984740212813985 4.5202945950901707 Li
atom 6.4646330014278295 9.4865087455379378 2.9299220388387401 Li
atom 7.1788122625549198 5.0525589081598703 2.1563474448086599 Li
atom 4.9922501184717598 6.7425612196849194 1.9268485824507302 Li
atom 9.4001695571616715 7.9543369542498299 1.6832109813905902 Li
atom 5.0153720324275008 -0.0165602461897912 -0.0042290006982396 P
atom 4.8488223601734495 4.8974574969669993 4.9139974914255609 P
atom -0.0106822646546514 0.0346590858427838 5.0317243504355504 P
atom 0.0333632946664855 4.9677907208724887 -0.0041724329654061 P
atom 1.0382467000955800 3.6159186441660398 8.7494571638295220 S
atom 8.7443469573338923 3.6451687844109801 1.1078337615726601 S
atom 3.6774919795731602 1.0046141129108299 8.7433410168791212 S
atom 6.1499564837280412 1.2339460936963897 1.1478002298203700 S
atom 2.3801850649689102 2.4711674844123102 2.4692978769214200 S
atom 1.0048716447969099 8.6590916024048674 3.7088577758404706 S
atom 8.5064108166506625 8.6258463911698975 6.0211710229449897 S
atom 3.6105880403282899 6.0118107733275803 3.7132731369532403 S
atom 6.0964664255214505 6.0331424118295596 6.0680055848148413 S
atom 2.3549163076567705 7.2432108277453997 7.3837232129310610 S
atom 5.9918186816582910 3.6775045789555594 3.7112052861512002 S
atom 3.6470994956172711 3.7621395864772502 6.1386975701719306 S
atom 8.5930231749480903 1.0298830519919899 3.7152838220594706 S
atom 1.2396184231467497 1.1686154665756801 6.1849568374592412 S
atom 7.3386106299850011 2.2590158646361500 7.3858083839723108 S
atom 5.8948855223252421 8.4777123204941791 8.6297909201437299 S
atom 3.7598871252201205 8.6276324297499301 1.1036462646325900 S
atom 8.5357572522566212 5.8648244321593994 8.6249366881169394 S
atom 1.1655053653038101 6.2211457866798900 1.1472658753911900 S
atom 7.2378202665783808 7.3363501580298491 2.3502469697544899 S
atom 0.4837518485208290 0.1284316581253750 0.3160475569719821 Cl
atom 0.0113215926267418 5.3476071967629188 5.2307845878072907 Cl
atom 4.9958580489266797 0.3634919763781839 5.2293495270334898 Cl
atom 5.3451633390127196 4.9907791284926404 0.1985862451203500 Cl
