#=======================================================
# FHI-aims file: ./2_2_2_geometry.in
# Created using the Atomic Simulation Environment (ASE)
# Fri Apr  7 09:57:58 2023
#=======================================================
lattice_vector 24.6671571800000002 -0.0453780200000000 0.0014060200000000 
lattice_vector -0.1843306600000000 14.3796443200000006 0.0171758400000000 
lattice_vector -8.2978685799999994 -0.0040099600000000 23.3822275799999986 
atom 10.5752796007628707 1.0408707912968851 4.3525549394351692 Li
atom 8.3509654875775023 5.8834057592966689 10.3063077722413929 Li
atom 4.3281564587669692 5.8891779701261857 4.4905073159089568 Li
atom 2.3415754286216228 1.3289566266871076 10.3571709033633077 Li
atom 5.0383602744707225 14.0021820646534270 10.3246676947294542 Li
atom 7.3553379078037011 7.6056029425392948 4.4709651923007625 Li
atom 0.0395396593251049 3.7554295035170382 10.3798392073869437 Li
atom 2.2111317695394721 3.3970940381479307 4.6605531875243980 Li
atom 8.2068457978586409 3.7204353991813996 4.4615156357429697 Li
atom 6.5315121184039278 3.2838556575184286 10.3438340502115196 Li
atom 1.0061597868102627 13.9484626794608193 4.5416459656259978 Li
atom -0.7293094271562505 7.4129151024311506 10.4071080652682468 Li
atom 0.0000150835715081 4.1844044483104792 23.1793617538084646 Li
atom 6.5505110235243382 1.9234303866598657 6.6733996332850580 Li
atom 2.4196809359221025 1.9068219229876184 0.8862609602355014 Li
atom 0.7646706299623909 5.3989350635080777 7.4578215737911417 Li
atom 11.7036435018256526 7.2561934285483662 0.9543300296791902 Li
atom 9.5198110401198459 14.3068948348641385 6.9189162768271100 Li
atom 5.3616792644589379 3.1728365433818828 1.8147853124777438 Li
atom 3.3410277570524278 4.1268140794046362 7.6505394752344378 Li
atom 9.3286237224363173 2.9044863839529209 7.9840316958035622 Li
atom 11.6393081443103803 4.0056504691816333 1.6797804268262027 Li
atom 3.4858068458178786 7.2728378151192121 6.9310573109590505 Li
atom 5.3972012167006831 0.2945681182988926 1.5291983483390663 Li
atom -1.3983038963031924 3.2819329335686285 5.7811607561457130 Li
atom 9.2088695353300327 5.5664419922117911 1.9524802034281155 Li
atom 8.7525447491919959 1.8100143258621777 1.4567048249695438 Ge
atom 0.4897385264562292 1.7559680698111890 7.3607041845623380 Ge
atom 6.6331702165513091 5.3764596809615943 7.3055380447837388 P
atom 2.4814706996649263 5.3778247912854660 1.4899634285192538 P
atom 5.7294520883822990 7.0989823549509294 7.9721468576815582 S
atom 7.6712745924764647 0.0259539324572725 2.1420150369447946 S
atom -0.6552554830791665 3.5563828505789132 8.0369610747648021 S
atom 1.5814579595594334 3.7110694166414899 2.2805236044615951 S
atom 7.7071751159458097 3.6706451851781821 2.1063360458780038 S
atom 5.6755124119491622 3.7198318274621958 8.0541986418566687 S
atom 1.5186666645337423 7.0732527651303680 2.1419448386567463 S
atom -0.7602638597441737 14.3414999902704778 8.0695469627576539 S
atom 10.8277970304763009 1.8304067758726286 2.1816901757736877 S
atom 8.5722365466313217 5.2629887514172857 7.9818595694795027 S
atom 4.4367496796015597 5.3725272889186773 2.1212514727511347 S
atom 2.5657078026774527 1.9008731885010339 8.0507024644011782 S
atom 6.6272553742316251 5.3802064450790148 5.2505736064895743 S
atom 4.6201469353858258 1.8861571117796303 10.9205199932712524 S
atom 0.4178121208718527 1.8150880721250064 5.1269525958775892 S
atom -1.7302482701466857 5.3022787952799488 11.1275363306505408 S
atom 8.8376358301937845 1.8659495381374802 5.8231263411729968 S
atom 6.4293317995619770 5.3272318405029004 11.6794816212626866 S
atom 2.4987696638750343 5.4204413180883915 5.8681887208702941 S
atom 0.4562571814532668 1.8482087711398618 11.7012835956992571 S
atom 10.6933284862483742 5.4771829588615599 4.2944051950721409 I
atom 8.7499754368358040 1.5702392449506866 10.3577617256446697 I
atom 4.7435222863477513 1.6651599080633772 4.4032653174592502 I
atom 2.3832343794054491 5.5789184994914978 10.0392357388141722 I
atom 6.4263453107628701 1.0388658112968856 16.0436687294351685 Li
atom 4.2020311975775027 5.8814007792966692 21.9974215622413922 Li
atom 0.1792221687669703 5.8871729901261842 16.1816211059089525 Li
atom -1.8073588613783760 1.3269516466871081 22.0482846933633034 Li
atom 0.8894259844707250 14.0001770846534246 22.0157814847294588 Li
atom 3.2064036178037010 7.6035979625392978 16.1620789823007627 Li
atom -4.1093946306748945 3.7534245235170385 22.0709529973869429 Li
atom -1.9378025204605283 3.3950890581479296 16.3516669775243955 Li
atom 4.0579115078586421 3.7184304191813995 16.1526294257429690 Li
atom 2.3825778284039272 3.2818506775184280 22.0349478402115260 Li
atom -3.1427745031897367 13.9464576994608187 16.2327597556259988 Li
atom -4.8782437171562503 7.4109101224311500 22.0982218552682532 Li
atom 4.1489493735715106 4.1864094283104789 11.4882479638084618 Li
atom 2.4015767335243381 1.9214254066598648 18.3645134232850573 Li
atom -1.7292533540778965 1.9048169429876185 12.5773747502355047 Li
atom -3.3842636600376088 5.3969300835080780 19.1489353637911393 Li
atom 7.5547092118256529 7.2541884485483665 12.6454438196791887 Li
atom 5.3708767501198471 14.3048898548641414 18.6100300668271075 Li
atom 1.2127449744589383 3.1708315633818822 13.5058991024777466 Li
atom -0.8079065329475725 4.1248090994046400 19.3416532652344380 Li
atom 5.1796894324363176 2.9024814039529212 19.6751454858035615 Li
atom 7.4903738543103806 4.0036454891816318 13.3708942168262013 Li
atom -0.6631274441821210 7.2708328351192124 18.6221711009590543 Li
atom 1.2482669267006834 0.2925631382988926 13.2203121383390663 Li
atom -5.5472381863031917 3.2799279535686292 17.4722745461457123 Li
atom 5.0599352453300321 5.5644370122117914 13.6435939934281159 Li
atom 4.6036104591919953 1.8080093458621778 13.1478186149695428 Ge
atom -3.6591957635437695 1.7539630898111886 19.0518179745623328 Ge
atom 2.4842359265513099 5.3744547009615982 18.9966518347837408 P
atom -1.6674635903350727 5.3758198112854645 13.1810772185192526 P
atom 1.5805177983823007 7.0969773749509315 19.6632606476815646 S
atom 3.5223403024764672 0.0239489524572725 13.8331288269447974 S
atom -4.8041897730791661 3.5543778705789131 19.7280748647647997 S
atom -2.5674763304405666 3.7090644366414902 13.9716373944615952 S
atom 3.5582408259458105 3.6686402051781823 13.7974498358780018 S
atom 1.5265781219491625 3.7178268474621956 19.7453124318566680 S
atom -2.6302676254662574 7.0712477851303666 13.8330586286567456 S
atom -4.9091981497441735 14.3394950102704790 19.7606607527576514 S
atom 6.6788627404763012 1.8284017958726286 13.8728039657736844 S
atom 4.4233022566313229 5.2609837714172878 19.6729733594795029 S
atom 0.2878153896015598 5.3705223089186793 13.8123652627511344 S
atom -1.5832264873225463 1.8988682085010333 19.7418162544011793 S
atom 2.4783210842316254 5.3782014650790133 16.9416873964895736 S
atom 0.4712126453858261 1.8841521317796306 22.6116337832712517 S
atom -3.7311221691281462 1.8130830921250067 16.8180663858775894 S
atom -5.8791825601466874 5.3002738152799491 22.8186501206505454 S
atom 4.6887015401937848 1.8639445581374803 17.5142401311730040 S
atom 2.2803975095619817 5.3252268605028998 23.3705954112626841 S
atom -1.6501646261249650 5.4184363380883944 17.5593025108702925 S
atom 4.6051914714532654 1.8502137511398629 0.0101698056992573 S
atom 6.5443941962483745 5.4751779788615602 15.9855189850721437 I
atom 4.6010411468358052 1.5682342649506869 22.0488755156446672 I
atom 0.5945879963477529 1.6631549280633773 16.0943791074592468 I
atom -1.7656999105945501 5.5769135194914998 21.7303495288141697 I
atom 10.4831142707628704 8.2306929512968861 4.3611428594351693 Li
atom 8.2588001575775021 13.0732279192966736 10.3148956922413930 Li
atom 4.2359911287669689 13.0790001301261842 4.4990952359089569 Li
atom 2.2494100986216243 8.5187787866871112 10.3657588233633078 Li
atom 5.1305256044707228 6.8123599046534231 10.3160797747294541 Li
atom 7.4475032378037014 0.4157807825392940 4.4623772723007624 Li
atom -0.0526256706748950 10.9452516635170376 10.3884271273869437 Li
atom 2.1189664395394718 10.5869161981479269 4.6691411075243998 Li
atom 8.1146804678586406 10.9102575591813995 4.4701035557429689 Li
atom 6.4393467884039275 10.4736778175184320 10.3524219702115197 Li
atom 1.0983251168102626 6.7586405194608146 4.5330580456259977 Li
atom -0.6371440971562503 0.2230929424311543 10.3985201452682485 Li
atom -0.0921502464284922 11.3742266083104795 23.1879496738084647 Li
atom 6.4583456935243380 9.1132525466598651 6.6819875532850581 Li
atom 2.3275156059221027 9.0966440829876181 0.8948488802355016 Li
atom 0.6725052999623906 12.5887572235080789 7.4664094937911418 Li
atom 11.7958088318256529 0.0663712685483654 0.9457421096791905 Li
atom 9.6119763701198462 7.1170726748641400 6.9103283568271099 Li
atom 5.2695139344589377 10.3626587033818858 1.8233732324777439 Li
atom 3.2488624270524276 11.3166362394046374 7.6591273952344379 Li
atom 9.2364583924363171 10.0943085439529252 7.9926196158035623 Li
atom 11.5471428143103800 11.1954726291816353 1.6883683468262032 Li
atom 3.5779721758178802 0.0830156551192140 6.9224693909590522 Li
atom 5.3050358867006828 7.4843902782988954 1.5377862683390660 Li
atom -1.4904692263031925 10.4717550935686319 5.7897486761457131 Li
atom 9.1167042053300325 12.7562641522117932 1.9610681234281160 Li
atom 8.6603794191919956 8.9998364858621809 1.4652927449695436 Ge
atom 0.3975731964562289 8.9457902298111929 7.3692921045623372 Ge
atom 6.5410048865513089 12.5662818409615973 7.3141259647837389 P
atom 2.3893053696649265 12.5676469512854645 1.4985513485192539 P
atom 5.6372867583822988 14.2888045149509288 7.9807347776815583 S
atom 7.5791092624764644 7.2157760924572738 2.1506029569447942 S
atom -0.7474208130791667 10.7462050105789206 8.0455489947648058 S
atom 1.4892926295594331 10.9008915766414862 2.2891115244615952 S
atom 7.6150097859458095 10.8604673451781863 2.1149239658780039 S
atom 5.5833470819491620 10.9096539874621978 8.0627865618566688 S
atom 1.4265013345337421 14.2630749251303701 2.1505327586567464 S
atom -0.6680985297441738 7.1516778302704793 8.0609590427576538 S
atom 10.7356317004763007 9.0202289358726322 2.1902780957736869 S
atom 8.4800712166313215 12.4528109114172860 7.9904474894795019 S
atom 4.3445843496015595 12.5623494489186811 2.1298393927511348 S
atom 2.4735424726774533 9.0906953485010327 8.0592903844011783 S
atom 6.5350900442316249 12.5700286050790169 5.2591615264895744 S
atom 4.5279816053858255 9.0759792717796302 10.9291079132712525 S
atom 0.3256467908718529 9.0049102321250061 5.1355405158775893 S
atom -1.8224136001466851 12.4921009552799482 11.1361242506505409 S
atom 8.7454705001937842 9.0557716981374803 5.8317142611729968 S
atom 6.3371664695619767 12.5170540005029025 11.6880695412626867 S
atom 2.4066043338750340 12.6102634780883953 5.8767766408702942 S
atom 0.3640918514532674 9.0380309311398612 11.7098715156992572 S
atom 10.6011631562483739 12.6670051188615602 4.3029931150721410 I
atom 8.6578101068358038 8.7600614049506866 10.3663496456446698 I
atom 4.6513569563477510 8.8549820680633786 4.4118532374592503 I
atom 2.2910690494054506 12.7687406594914989 10.0478236588141723 I
atom 6.3341799807628698 8.2286879712968855 16.0522566494351686 Li
atom 4.1098658675775024 13.0712229392966695 22.0060094822413923 Li
atom 0.0870568387669700 13.0769951501261836 16.1902090259089597 Li
atom -1.8995241913783762 8.5167738066871088 22.0568726133633035 Li
atom 0.9815913144707243 6.8103549246534252 22.0071935647294623 Li
atom 3.2985689478037012 0.4137758025392971 16.1534910623007626 Li
atom -4.2015599606748948 10.9432466835170423 22.0795409173869430 Li
atom -2.0299678504605287 10.5849112181479299 16.3602548975243991 Li
atom 3.9657461778586418 10.9082525791814007 16.1612173457429691 Li
atom 2.2904124984039269 10.4716728375184296 22.0435357602115261 Li
atom -3.0506091731897369 6.7566355394608149 16.2241718356259952 Li
atom -4.7860783871562509 0.2210879624311543 22.0896339352682496 Li
atom 4.0567840435715103 11.3762315883104748 11.4968358838084619 Li
atom 2.3094114035243378 9.1112475666598662 18.3731013432850574 Li
atom -1.8214186840778968 9.0946391029876175 12.5859626702355047 Li
atom -3.4764289900376091 12.5867522435080783 19.1575232837911393 Li
atom 7.6468745418256532 0.0643662885483686 12.6368558996791887 Li
atom 5.4630420801198474 7.1150676948641385 18.6014421468271074 Li
atom 1.1205796444589380 10.3606537233818852 13.5144870224777467 Li
atom -0.9000718629475728 11.3146312594046350 19.3502411852344380 Li
atom 5.0875241024363174 10.0923035639529211 19.6837334058035616 Li
atom 7.3982085243103803 11.1934676491816312 13.3794821368262014 Li
atom -0.5709621141821206 0.0810106751192141 18.6135831809590471 Li
atom 1.1561015967006831 7.4823852982988956 13.2289000583390663 Li
atom -5.6394035163031919 10.4697501135686295 17.4808624661457124 Li
atom 4.9677699153300319 12.7542591722117926 13.6521819134281159 Li
atom 4.5114451291919950 8.9978315058621821 13.1564065349695429 Ge
atom -3.7513610935437702 8.9437852498111887 19.0604058945623365 Ge
atom 2.3920705965513096 12.5642768609615967 19.0052397547837408 P
atom -1.7596289203350730 12.5656419712854657 13.1896651385192527 P
atom 1.4883524683823004 14.2867995349509300 19.6718485676815646 S
atom 3.4301749724764670 7.2137711124572732 13.8417167469447975 S
atom -4.8963551030791663 10.7442000305789129 19.7366627847648033 S
atom -2.6596416604405668 10.8988865966414910 13.9802253144615953 S
atom 3.4660754959458102 10.8584623651781822 13.8060377558780019 S
atom 1.4344127919491634 10.9076490074621972 19.7539003518566645 S
atom -2.7224329554662576 14.2610699451303695 13.8416465486567457 S
atom -4.8170328197441741 7.1496728502704796 19.7520728327576549 S
atom 6.5866974104762992 9.0182239558726298 13.8813918857736898 S
atom 4.3311369266313227 12.4508059314172854 19.6815612794795030 S
atom 0.1956500596015595 12.5603444689186823 13.8209531827511345 S
atom -1.6753918173225466 9.0886903685010374 19.7504041744011758 S
atom 2.3861557542316252 12.5680236250790145 16.9502753164895736 S
atom 0.3790473153858258 9.0739742917796349 22.6202217032712518 S
atom -3.8232874991281465 9.0029052521250037 16.8266543058775895 S
atom -5.9713478901466868 12.4900959752799494 22.8272380406505491 S
atom 4.5965362101937846 9.0537667181374850 17.5228280511729970 S
atom 2.1882321795619815 12.5150490205029037 23.3791833312626842 S
atom -1.7423299561249652 12.6082584980883965 17.5678904308702926 S
atom 4.5130261414532651 9.0400359111398600 0.0187577256992625 S
atom 6.4522288662483751 12.6650001388615649 15.9941069050721403 I
atom 4.5088758168358023 8.7580564249506878 22.0574634356446779 I
atom 0.5024226663477517 8.8529770880633780 16.1029670274592505 I
atom -1.8578652405945504 12.7667356794915019 21.7389374488141698 I
atom 22.9088581907628708 1.0181817812968856 4.3532579494351680 Li
atom 20.6845440775775025 5.8607167492966692 10.3070107822413934 Li
atom 16.6617350487669711 5.8664889601261843 4.4912103259089546 Li
atom 14.6751540186216225 1.3062676166871081 10.3578739133633082 Li
atom 17.3719388644707244 13.9794930546534246 10.3253707047294583 Li
atom 19.6889164978037030 7.5829139325392942 4.4716682023007621 Li
atom 12.3731182493251044 3.7327404935170381 10.3805422173869442 Li
atom 14.5447103595394722 3.3744050281479301 4.6612561975243976 Li
atom 20.5404243878586428 3.6977463891813995 4.4622186457429702 Li
atom 18.8650907084039261 3.2611666475184284 10.3445370602115236 Li
atom 13.3397383768102618 13.9257736694608187 4.5423489756259974 Li
atom 11.6042691628437495 7.3902260924311536 10.4078110752682473 Li
atom 12.3335936735715084 4.1617154383104804 23.1800647638084634 Li
atom 18.8840896135243383 1.9007413766598651 6.6741026432850594 Li
atom 14.7532595259221022 1.8841329129876185 0.8869639702355016 Li
atom 13.0982492199623906 5.3762460535080780 7.4585245837911405 Li
atom 24.0372220918256545 7.2335044185483675 0.9550330396791904 Li
atom 21.8533896301198460 14.2842058248641361 6.9196192868271078 Li
atom 17.6952578544589372 3.1501475333818831 1.8154883224777438 Li
atom 15.6746063470524284 4.1041250694046383 7.6512424852344374 Li
atom 21.6622023124363174 2.8817973739529208 7.9847347058035618 Li
atom 23.9728867343103786 3.9829614591816327 1.6804834368262032 Li
atom 15.8193854358178800 7.2501488051192151 6.9317603209590493 Li
atom 17.7307798067006814 0.2718791082988926 1.5299013583390659 Li
atom 10.9352746936968064 3.2592439235686284 5.7818637661457135 Li
atom 21.5424481253300328 5.5437529822117915 1.9531832134281160 Li
atom 21.0861233391919960 1.7873253158621778 1.4574078349695436 Ge
atom 12.8233171164562307 1.7332790598111887 7.3614071945623349 Ge
atom 18.9667488065513083 5.3537706709615964 7.3062410547837384 P
atom 14.8150492896649251 5.3551357812854663 1.4906664385192538 P
atom 18.0630306783822974 7.0762933449509298 7.9728498676815596 S
atom 20.0048531824764666 0.0032649224572725 2.1427180469447942 S
atom 11.6783231069208338 3.5336938405789131 8.0376640847648044 S
atom 13.9150365495594333 3.6883804066414903 2.2812266144615951 S
atom 20.0407537059458107 3.6479561751781819 2.1070390558780039 S
atom 18.0090910019491659 3.6971428174621965 8.0549016518566674 S
atom 13.8522452545337416 7.0505637551303693 2.1426478486567464 S
atom 11.5733147302558290 14.3188109802704808 8.0702499727576562 S
atom 23.1613756204762993 1.8077177658726287 2.1823931857736869 S
atom 20.9058151366313218 5.2402997414172843 7.9825625794794997 S
atom 16.7703282696015599 5.3498382789186776 2.1219544827511347 S
atom 14.8992863926774533 1.8781841785010336 8.0514054744011787 S
atom 18.9608339642316253 5.3575174350790133 5.2512766164895757 S
atom 16.9537255253858277 1.8634681017796306 10.9212230032712529 S
atom 12.7513907108718545 1.7923990621250072 5.1276556058775888 S
atom 10.6033303198533169 5.2795897852799509 11.1282393406505413 S
atom 21.1712144201937846 1.8432605281374803 5.8238293511729973 S
atom 18.7629103895619807 5.3045428305028999 11.6801846312626854 S
atom 14.8323482538750344 5.3977523080883936 5.8688917308702955 S
atom 12.7898357714532676 1.8255197611398626 11.7019866056992594 S
atom 23.0269070762483743 5.4544939488615602 4.2951082050721414 I
atom -3.5836031531641961 1.5929282549506871 10.3570587156446710 I
atom 17.0771008763477532 1.6424708980633773 4.4039683274592489 I
atom 14.7168129694054475 5.5562294894914981 10.0399387488141709 I
atom 18.7599239007628746 1.0161768012968855 16.0443717394351673 Li
atom 16.5356097875775063 5.8587117692966704 21.9981245722413981 Li
atom 12.5128007587669696 5.8644839801261837 16.1823241159089619 Li
atom 10.5262197286216228 1.3042626366871080 22.0489877033633057 Li
atom 13.2230045744707265 13.9774880746534240 22.0164844947294540 Li
atom 15.5399822078037033 7.5809089525392945 16.1627819923007685 Li
atom 8.2241839593251065 3.7307355135170388 22.0716560073869488 Li
atom 10.3957760695394708 3.3724000481479299 16.3523699875244013 Li
atom 16.3914900978586431 3.6957414091813994 16.1533324357429748 Li
atom 14.7161564184039282 3.2591616675184278 22.0356508502115176 Li
atom 9.1908040868102603 13.9237686894608164 16.2334627656260011 Li
atom 7.4553348728437507 7.3882211124311503 22.0989248652682484 Li
atom 16.4825279635715098 4.1637204183104783 11.4889509738084641 Li
atom 14.7351553235243404 1.8987363966598652 18.3652164332850560 Li
atom 10.6043252359221025 1.8821279329876186 12.5780777602355052 Li
atom 8.9493149299623909 5.3742410735080792 19.1496383737911415 Li
atom 19.8882878018256548 7.2314994385483660 12.6461468296791892 Li
atom 17.7044553401198463 14.2822008448641409 18.6107330768271133 Li
atom 13.5463235644589375 3.1481425533818825 13.5066021124777436 Li
atom 11.5256720570524287 4.1021200894046377 19.3423562752344367 Li
atom 17.5132680224363178 2.8797923939529211 19.6758484958035638 Li
atom 19.8239524443103790 3.9809564791816321 13.3715972268262018 Li
atom 11.6704511458178768 7.2481438251192118 18.6228741109590565 Li
atom 13.5818455167006835 0.2698741282988925 13.2210151483390668 Li
atom 6.7863404036968040 3.2572389435686295 17.4729775561457217 Li
atom 17.3935138353300331 5.5417480022117909 13.6442970034281164 Li
atom 16.9371890491919963 1.7853203358621783 13.1485216249695469 Ge
atom 8.6743828264562328 1.7312740798111885 19.0525209845623351 Ge
atom 14.8178145165513087 5.3517656909615958 18.9973548447837430 P
atom 10.6661149996649254 5.3531308012854657 13.1817802285192567 P
atom 13.9140963883822995 7.0742883649509292 19.6639636576815562 S
atom 15.8559188924764651 0.0012599424572725 13.8338318369447926 S
atom 7.5293888169208341 3.5316888605789134 19.7287778747648019 S
atom 9.7661022595594336 3.6863754266414905 13.9723404044615958 S
atom 15.8918194159458128 3.6459511951781822 13.7981528458780023 S
atom 13.8601567119491644 3.6951378374621964 19.7460154418566667 S
atom 9.7033109645337419 7.0485587751303660 13.8337616386567444 S
atom 7.4243804402558284 14.3168060002704820 19.7613637627576537 S
atom 19.0124413304762996 1.8057127858726287 13.8735069757736902 S
atom 16.7568808466313222 5.2382947614172855 19.6736763694795052 S
atom 12.6213939796015620 5.3478332989186788 13.8130682727511349 S
atom 10.7503521026774536 1.8761791985010332 19.7425192644011780 S
atom 14.8118996742316256 5.3555124550790127 16.9423904064895723 S
atom 12.8047912353858262 1.8614631217796302 22.6123367932712611 S
atom 8.6024564208718548 1.7903940821250064 16.8187693958775881 S
atom 6.4543960298533127 5.2775848052799486 22.8193531306505406 S
atom 17.0222801301937849 1.8412555481374804 17.5149431411729957 S
atom 14.6139760995619792 5.3025378505028993 23.3712984212626864 S
atom 10.6834139638750347 5.3957473280883912 17.5600055208702948 S
atom 16.9387700614532655 1.8275247411398625 0.0108728156992625 S
atom 18.8779727862483746 5.4524889688615596 15.9862219950721407 I
atom -7.7325374431641949 1.5909232749506861 22.0481725056446685 I
atom 12.9281665863477553 1.6404659180633767 16.0950821174592527 I
atom 10.5678786794054478 5.5542245094914975 21.7310525388141720 I
atom 22.8166928607628705 8.2080039412968819 4.3618458694351698 Li
atom 20.5923787475775022 13.0505389092966748 10.3155987022413935 Li
atom 16.5695697187669708 13.0563111201261890 4.4997982459089547 Li
atom 14.5829886886216222 8.4960897766871089 10.3664618333633083 Li
atom 17.4641041944707212 6.7896708946534234 10.3167827847294582 Li
atom 19.7810818278037033 0.3930917725392972 4.4630802823007620 Li
atom 12.2809529193251041 10.9225626535170370 10.3891301373869442 Li
atom 14.4525450295394720 10.5642271881479282 4.6698441175243977 Li
atom 20.4482590578586425 10.8875685491813972 4.4708065657429703 Li
atom 18.7729253784039258 10.4509888075184332 10.3531249802115237 Li
atom 13.4319037068102620 6.7359515094608167 4.5337610556259973 Li
atom 11.6964344928437498 0.2004039324311543 10.3992231552682473 Li
atom 12.2414283435715081 11.3515375983104807 23.1886526838084635 Li
atom 18.7919242835243381 9.0905635366598645 6.6826905632850595 Li
atom 14.6610941959221019 9.0739550729876193 0.8955518902355014 Li
atom 13.0060838899623903 12.5660682135080819 7.4671125037911406 Li
atom 24.1293874218256512 0.0436822585483654 0.9464451196791904 Li
atom 21.9455549601198463 7.0943836648641385 6.9110313668271077 Li
atom 17.6030925244589369 10.3399696933818834 1.8240762424777441 Li
atom 15.5824410170524281 11.2939472294046386 7.6598304052344375 Li
atom 21.5700369824363172 10.0716195339529246 7.9933226258035619 Li
atom 23.8807214043103784 11.1727836191816330 1.6890713568262026 Li
atom 15.9115507658178750 0.0603266451192109 6.9231724009590510 Li
atom 17.6386144767006812 7.4617012682988948 1.5384892783390656 Li
atom 10.8431093636968061 10.4490660835686331 5.7904516861457136 Li
atom 21.4502827953300326 12.7335751422117909 1.9617711334281154 Li
atom 20.9939580091919957 8.9771474758621785 1.4659957549695439 Ge
atom 12.7311517864562305 8.9231012198111888 7.3699951145623350 Ge
atom 18.8745834765513081 12.5435928309615967 7.3148289747837385 P
atom 14.7228839596649248 12.5449579412854675 1.4992543585192539 P
atom 17.9708653483822971 14.2661155049509301 7.9814377876815596 S
atom 19.9126878524764663 7.1930870824572741 2.1513059669447943 S
atom 11.5861577769208335 10.7235160005789183 8.0462520047648045 S
atom 13.8228712195594330 10.8782025666414892 2.2898145344615948 S
atom 19.9485883759458105 10.8377783351781840 2.1156269758780035 S
atom 17.9169256719491656 10.8869649774621955 8.0634895718566675 S
atom 13.7600799245337413 14.2403859151303678 2.1512357686567465 S
atom 11.6654800602558293 7.1289888202704779 8.0616620527576579 S
atom 23.0692102904762990 8.9975399258726299 2.1909811057736870 S
atom 20.8136498066313216 12.4301219014172872 7.9911504994794997 S
atom 16.6781629396015596 12.5396604389186788 2.1305424027511348 S
atom 14.8071210626774530 9.0680063385010339 8.0599933944011788 S
atom 18.8686686342316250 12.5473395950790163 5.2598645364895749 S
atom 16.8615601953858274 9.0532902617796278 10.9298109232712530 S
atom 12.6592253808718542 8.9822212221250073 5.1362435258775889 S
atom 10.5111649898533166 12.4694119452799494 11.1368272606505414 S
atom 21.0790490901937844 9.0330826881374815 5.8324172711729965 S
atom 18.6707450595619804 12.4943649905029002 11.6887725512626854 S
atom 14.7401829238750341 12.5875744680883912 5.8774796508702956 S
atom 12.6976704414532673 9.0153419211398624 11.7105745256992595 S
atom 22.9347417462483740 12.6443161088615597 4.3036961250721415 I
atom -3.6757684831641964 8.7827504149506908 10.3656466356446710 I
atom 16.9849355463477529 8.8322930580633781 4.4125562474592490 I
atom 14.6246476394054472 12.7460516494914984 10.0485266688141710 I
atom 18.6677585707628744 8.2059989612968867 16.0529596594351673 Li
atom 16.4434444575775025 13.0485339292966760 22.0067124922413910 Li
atom 12.4206354287669694 13.0543061401261884 16.1909120359089620 Li
atom 10.4340543986216225 8.4940847966871083 22.0575756233633058 Li
atom 13.3151699044707232 6.7876659146534237 22.0078965747294539 Li
atom 15.6321475378037036 0.3910867925392972 16.1541940723007684 Li
atom 8.1320186293251062 10.9205576735170418 22.0802439273869524 Li
atom 10.3036107395394705 10.5622222081479276 16.3609579075244014 Li
atom 16.2993247678586428 10.8855635691814001 16.1619203557429714 Li
atom 14.6239910884039297 10.4489838275184290 22.0442387702115212 Li
atom 9.2829694168102606 6.7339465294608152 16.2248748456260010 Li
atom 7.5475002028437492 0.1983989524311542 22.0903369452682483 Li
atom 16.3903626335715060 11.3535425783104795 11.4975388938084677 Li
atom 14.6429899935243366 9.0885585566598657 18.3738043532850668 Li
atom 10.5121599059221023 9.0719500929876205 12.5866656802355052 Li
atom 8.8571495999623906 12.5640632335080795 19.1582262937911416 Li
atom 19.9804531318256551 0.0416772785483686 12.6375589096791892 Li
atom 17.7966206701198466 7.0923786848641370 18.6021451568271061 Li
atom 13.4541582344589372 10.3379647133818864 13.5151900324777436 Li
atom 11.4335067270524284 11.2919422494046380 19.3509441952344368 Li
atom 17.4211026924363210 10.0696145539529223 19.6844364158035638 Li
atom 19.7317871143103787 11.1707786391816324 13.3801851468262019 Li
atom 11.7626164758178735 0.0583216651192141 18.6142861909590565 Li
atom 13.4896801867006833 7.4596962882988951 13.2296030683390669 Li
atom 6.6941750736968055 10.4470611035686289 17.4815654761457182 Li
atom 17.3013485053300329 12.7315701622117938 13.6528849234281164 Li
atom 16.8450237191919960 8.9751424958621815 13.1571095449695470 Ge
atom 8.5822174964562326 8.9210962398111935 19.0611089045623352 Ge
atom 14.7256491865513084 12.5415878509615943 19.0059427647837431 P
atom 10.5739496696649251 12.5429529612854687 13.1903681485192568 P
atom 13.8219310583822974 14.2641105249509330 19.6725515776815598 S
atom 15.7637535624764649 7.1910821024572744 13.8424197569447927 S
atom 7.4372234869208338 10.7215110205789177 19.7373657947648020 S
atom 9.6739369295594333 10.8761975866414904 13.9809283244615958 S
atom 15.7996540859458126 10.8357733551781834 13.8067407658780024 S
atom 13.7679913819491642 10.8849599974622002 19.7546033618566668 S
atom 9.6111456345337416 14.2383809351303707 13.8423495586567444 S
atom 7.5165457702558287 7.1269838402704782 19.7527758427576536 S
atom 18.9202760004762993 8.9955349458726293 13.8820948957736903 S
atom 16.6647155166313219 12.4281169214172866 19.6822642894795052 S
atom 12.5292286496015617 12.5376554589186817 13.8216561927511350 S
atom 10.6581867726774533 9.0660013585010333 19.7511071844011781 S
atom 14.7197343442316253 12.5453346150790139 16.9509783264895759 S
atom 12.7126259053858277 9.0512852817796343 22.6209247132712576 S
atom 8.5102910908718545 8.9802162421250067 16.8273573158775882 S
atom 6.3622306998533125 12.4674069652799488 22.8279410506505407 S
atom 16.9301148001937847 9.0310777081374844 17.5235310611729957 S
atom 14.5218107695619789 12.4923600105029031 23.3798863412626865 S
atom 10.5912486338750345 12.5855694880883959 17.5685934408702948 S
atom 16.8466047314532652 9.0173469011398595 0.0194607356992625 S
atom 18.7858074562483743 12.6423111288615608 15.9948099150721408 I
atom -7.8247027731641952 8.7807454349506866 22.0567604256446685 I
atom 12.8360012563477550 8.8302880780633810 16.1036700374592527 I
atom 10.4757133494054511 12.7440466694914996 21.7396404588141721 I
