#=======================================================
# FHI-aims file: ./geometry.in
# Created using the Atomic Simulation Environment (ASE)
# Fri Apr  7 09:59:10 2023
#=======================================================
lattice_vector 24.6671571800000002 -0.0453780200000000 0.0014060200000000 
lattice_vector -0.1843306600000000 14.3796443200000006 0.0171758400000000 
lattice_vector -8.2978685799999994 -0.0040099600000000 23.3822275799999986 
atom_frac 0.4918626500000000 0.0739890800000000 0.1860640750000001 Li
atom_frac 0.4897783050000000 0.4108166350000000 0.4404440500000000 Li
atom_frac 0.2430262100000000 0.4103700150000001 0.1917318250000001 Li
atom_frac 0.2446017950000000 0.0933146900000000 0.4428673100000002 Li
atom_frac 0.3598295700000000 0.9750086850000003 0.4408226350000000 Li
atom_frac 0.3663289950000000 0.5301237750000000 0.1908006750000000 Li
atom_frac 0.1528230400000000 0.2617688950000000 0.4437185550000000 Li
atom_frac 0.1583965450000000 0.2367986450000001 0.1991368550000000 Li
atom_frac 0.3987607800000000 0.2600408300000000 0.1905929850000000 Li
atom_frac 0.4152515949999999 0.2298020750000000 0.4421864050000000 Li
atom_frac 0.1131384350000000 0.9704254400000003 0.1935153100000000 Li
atom_frac 0.1238841850000000 0.5160294500000000 0.4446997450000000 Li
atom_frac 0.3355809050000001 0.2923303650000000 0.9910890150000002 Li
atom_frac 0.3625322700000000 0.1349842400000001 0.2852838300000000 Li
atom_frac 0.1118021250000000 0.1329689950000001 0.0377987900000000 Li
atom_frac 0.1410069900000000 0.3759906300000000 0.3186679000000001 Li
atom_frac 0.4918397750000000 0.5061790150000000 0.0404129350000000 Li
atom_frac 0.4926619900000000 0.9965778050000000 0.2951432450000001 Li
atom_frac 0.2450649500000000 0.2214427250000001 0.0774364750000000 Li
atom_frac 0.2475854650000000 0.2878624849999998 0.3269682950000000 Li
atom_frac 0.4945053300000000 0.2036416550000000 0.3412779500000000 Li
atom_frac 0.4980352000000000 0.2801555700000002 0.0716043100000000 Li
atom_frac 0.2446845600000000 0.5066278450000000 0.2960373000000001 Li
atom_frac 0.2409500100000000 0.0212636750000000 0.0653699200000000 Li
atom_frac 0.0281347350000000 0.2283923250000000 0.2470764750000000 Li
atom_frac 0.4042131800000000 0.3884044600000002 0.0831931300000000 Li
atom_frac 0.3766936400000001 0.1270794500000000 0.0621836600000000 Ge
atom_frac 0.1266335200000001 0.1226022250000000 0.3147014250000001 Ge
atom_frac 0.3767128450000000 0.3751696299999998 0.3121415400000000 P
atom_frac 0.1247365850000000 0.3744000450000002 0.0634395250000000 P
atom_frac 0.3505322000000000 0.4948839000000000 0.3405643850000000 S
atom_frac 0.3418220950000000 0.0029091400000000 0.0915859900000000 S
atom_frac 0.0908495350000000 0.2477031350000000 0.3435335150000000 S
atom_frac 0.0987863450000000 0.2584168550000000 0.0973365850000000 S
atom_frac 0.3445956099999999 0.2563792650000000 0.0898737300000000 S
atom_frac 0.3478279700000000 0.2598809750000000 0.3442463250000001 S
atom_frac 0.0959365500000000 0.4922216350000002 0.0912383400000000 S
atom_frac 0.0924807350000000 0.9977352150000001 0.3443760850000000 S
atom_frac 0.4712645250000000 0.1288046800000000 0.0931825350000001 S
atom_frac 0.4649953900000001 0.3675652100000000 0.3410664150000002 S
atom_frac 0.2130828550000000 0.3743179650000000 0.0904329000000000 S
atom_frac 0.2207926850000000 0.1329846900000000 0.3441976550000000 S
atom_frac 0.3469105050000000 0.3753116350000001 0.2242574850000000 S
atom_frac 0.3453595150000000 0.1323886150000000 0.4669255950000001 S
atom_frac 0.0916107250000000 0.1265764300000000 0.2191685850000000 S
atom_frac 0.0926103950000000 0.3691599300000001 0.4756204450000000 S
atom_frac 0.4429903150000000 0.1312306250000000 0.2489176650000000 S
atom_frac 0.4313517400000000 0.3719707800000001 0.4992033450000001 S
atom_frac 0.1884481050000000 0.3776169850000000 0.2506791900000000 S
atom_frac 0.1877697450000000 0.1292615900000000 0.5003286950000000 S
atom_frac 0.4980409450000000 0.3825211650000000 0.1833501450000000 I
atom_frac 0.5045270400000000 0.1109143950000000 0.4428640200000000 I
atom_frac 0.2564874100000000 0.1166616850000000 0.1882156400000000 I
atom_frac 0.2438521250000000 0.3888625050000000 0.4290529550000001 I
atom_frac 0.4918626500000000 0.0739890800000000 0.6860640750000001 Li
atom_frac 0.4897783050000000 0.4108166350000000 0.9404440500000000 Li
atom_frac 0.2430262100000000 0.4103700150000000 0.6917318250000000 Li
atom_frac 0.2446017950000000 0.0933146900000001 0.9428673100000000 Li
atom_frac 0.3598295700000002 0.9750086850000000 0.9408226350000003 Li
atom_frac 0.3663289950000000 0.5301237750000002 0.6908006750000001 Li
atom_frac 0.1528230400000000 0.2617688950000001 0.9437185550000000 Li
atom_frac 0.1583965449999999 0.2367986450000000 0.6991368549999999 Li
atom_frac 0.3987607800000000 0.2600408300000000 0.6905929850000001 Li
atom_frac 0.4152515950000000 0.2298020750000000 0.9421864050000004 Li
atom_frac 0.1131384350000000 0.9704254400000003 0.6935153100000001 Li
atom_frac 0.1238841850000001 0.5160294500000000 0.9446997450000004 Li
atom_frac 0.3355809050000001 0.2923303650000000 0.4910890150000000 Li
atom_frac 0.3625322700000000 0.1349842400000000 0.7852838300000000 Li
atom_frac 0.1118021250000001 0.1329689950000001 0.5377987900000002 Li
atom_frac 0.1410069900000000 0.3759906300000000 0.8186679000000000 Li
atom_frac 0.4918397750000000 0.5061790150000000 0.5404129350000000 Li
atom_frac 0.4926619900000000 0.9965778050000004 0.7951432450000000 Li
atom_frac 0.2450649500000001 0.2214427250000000 0.5774364750000003 Li
atom_frac 0.2475854650000000 0.2878624850000002 0.8269682950000001 Li
atom_frac 0.4945053300000000 0.2036416550000000 0.8412779500000001 Li
atom_frac 0.4980352000000000 0.2801555700000001 0.5716043100000000 Li
atom_frac 0.2446845600000001 0.5066278450000000 0.7960373000000003 Li
atom_frac 0.2409500100000000 0.0212636750000000 0.5653699200000001 Li
atom_frac 0.0281347350000000 0.2283923250000001 0.7470764750000001 Li
atom_frac 0.4042131800000000 0.3884044600000002 0.5831931300000001 Li
atom_frac 0.3766936399999999 0.1270794500000000 0.5621836600000000 Ge
atom_frac 0.1266335200000001 0.1226022250000000 0.8147014250000000 Ge
atom_frac 0.3767128450000001 0.3751696300000001 0.8121415400000002 P
atom_frac 0.1247365850000000 0.3744000450000001 0.5634395249999999 P
atom_frac 0.3505322000000002 0.4948839000000002 0.8405643850000004 S
atom_frac 0.3418220950000002 0.0029091400000000 0.5915859900000002 S
atom_frac 0.0908495350000000 0.2477031350000000 0.8435335150000000 S
atom_frac 0.0987863450000000 0.2584168550000000 0.5973365850000001 S
atom_frac 0.3445956099999999 0.2563792650000000 0.5898737300000000 S
atom_frac 0.3478279700000000 0.2598809750000000 0.8442463250000001 S
atom_frac 0.0959365500000000 0.4922216350000000 0.5912383400000000 S
atom_frac 0.0924807350000000 0.9977352150000001 0.8443760849999999 S
atom_frac 0.4712645250000000 0.1288046800000000 0.5931825350000000 S
atom_frac 0.4649953900000001 0.3675652100000001 0.8410664150000002 S
atom_frac 0.2130828550000000 0.3743179650000001 0.5904329000000000 S
atom_frac 0.2207926850000000 0.1329846900000000 0.8441976550000001 S
atom_frac 0.3469105050000000 0.3753116350000000 0.7242574850000000 S
atom_frac 0.3453595150000000 0.1323886150000000 0.9669255950000001 S
atom_frac 0.0916107250000000 0.1265764300000000 0.7191685850000000 S
atom_frac 0.0926103950000000 0.3691599300000001 0.9756204450000003 S
atom_frac 0.4429903150000002 0.1312306250000000 0.7489176650000005 S
atom_frac 0.4313517400000001 0.3719707800000001 0.9992033450000001 S
atom_frac 0.1884481050000000 0.3776169850000003 0.7506791899999999 S
atom_frac 0.1877697449999999 0.1292615900000001 0.0003286949999999 S
atom_frac 0.4980409450000001 0.3825211650000001 0.6833501450000002 I
atom_frac 0.5045270400000000 0.1109143950000000 0.9428640200000000 I
atom_frac 0.2564874100000000 0.1166616850000001 0.6882156399999999 I
atom_frac 0.2438521250000000 0.3888625050000002 0.9290529550000001 I
atom_frac 0.4918626500000000 0.5739890800000000 0.1860640750000001 Li
atom_frac 0.4897783050000000 0.9108166350000004 0.4404440500000000 Li
atom_frac 0.2430262100000000 0.9103700150000001 0.1917318250000001 Li
atom_frac 0.2446017950000001 0.5933146900000004 0.4428673100000002 Li
atom_frac 0.3598295700000000 0.4750086850000000 0.4408226350000000 Li
atom_frac 0.3663289950000000 0.0301237749999999 0.1908006750000000 Li
atom_frac 0.1528230400000000 0.7617688950000000 0.4437185550000000 Li
atom_frac 0.1583965450000000 0.7367986449999997 0.1991368550000001 Li
atom_frac 0.3987607800000000 0.7600408300000000 0.1905929850000000 Li
atom_frac 0.4152515949999999 0.7298020750000003 0.4421864050000000 Li
atom_frac 0.1131384350000000 0.4704254400000000 0.1935153100000000 Li
atom_frac 0.1238841850000000 0.0160294500000003 0.4446997450000000 Li
atom_frac 0.3355809050000001 0.7923303650000000 0.9910890150000002 Li
atom_frac 0.3625322699999999 0.6349842400000000 0.2852838300000000 Li
atom_frac 0.1118021250000000 0.6329689950000000 0.0377987900000000 Li
atom_frac 0.1410069900000000 0.8759906300000001 0.3186679000000001 Li
atom_frac 0.4918397750000000 0.0061790149999999 0.0404129350000000 Li
atom_frac 0.4926619900000000 0.4965778050000002 0.2951432450000001 Li
atom_frac 0.2450649500000000 0.7214427250000003 0.0774364750000000 Li
atom_frac 0.2475854650000000 0.7878624850000000 0.3269682950000000 Li
atom_frac 0.4945053300000000 0.7036416550000003 0.3412779500000000 Li
atom_frac 0.4980352000000000 0.7801555700000004 0.0716043100000000 Li
atom_frac 0.2446845600000001 0.0066278450000002 0.2960373000000002 Li
atom_frac 0.2409500100000000 0.5212636750000003 0.0653699200000000 Li
atom_frac 0.0281347350000000 0.7283923250000003 0.2470764750000000 Li
atom_frac 0.4042131799999999 0.8884044600000004 0.0831931300000000 Li
atom_frac 0.3766936400000001 0.6270794500000003 0.0621836600000000 Ge
atom_frac 0.1266335200000000 0.6226022250000004 0.3147014250000001 Ge
atom_frac 0.3767128450000000 0.8751696300000000 0.3121415400000000 P
atom_frac 0.1247365850000000 0.8744000450000001 0.0634395250000000 P
atom_frac 0.3505322000000000 0.9948838999999999 0.3405643850000000 S
atom_frac 0.3418220949999999 0.5029091400000001 0.0915859900000000 S
atom_frac 0.0908495350000001 0.7477031350000006 0.3435335150000002 S
atom_frac 0.0987863450000000 0.7584168549999997 0.0973365850000000 S
atom_frac 0.3445956099999999 0.7563792650000004 0.0898737300000000 S
atom_frac 0.3478279700000000 0.7598809750000002 0.3442463250000001 S
atom_frac 0.0959365500000000 0.9922216350000004 0.0912383400000000 S
atom_frac 0.0924807350000000 0.4977352150000001 0.3443760850000000 S
atom_frac 0.4712645250000000 0.6288046800000003 0.0931825350000000 S
atom_frac 0.4649953900000001 0.8675652100000000 0.3410664150000001 S
atom_frac 0.2130828550000000 0.8743179650000004 0.0904329000000000 S
atom_frac 0.2207926850000000 0.6329846899999999 0.3441976550000000 S
atom_frac 0.3469105050000000 0.8753116350000003 0.2242574850000000 S
atom_frac 0.3453595150000000 0.6323886150000000 0.4669255950000001 S
atom_frac 0.0916107250000000 0.6265764300000000 0.2191685850000000 S
atom_frac 0.0926103950000000 0.8691599300000000 0.4756204450000000 S
atom_frac 0.4429903150000000 0.6312306250000000 0.2489176650000000 S
atom_frac 0.4313517400000000 0.8719707800000003 0.4992033450000001 S
atom_frac 0.1884481050000000 0.8776169850000004 0.2506791900000000 S
atom_frac 0.1877697450000000 0.6292615899999999 0.5003286950000000 S
atom_frac 0.4980409450000000 0.8825211650000000 0.1833501450000000 I
atom_frac 0.5045270399999999 0.6109143950000000 0.4428640200000000 I
atom_frac 0.2564874100000000 0.6166616850000002 0.1882156400000000 I
atom_frac 0.2438521250000000 0.8888625050000001 0.4290529550000001 I
atom_frac 0.4918626500000000 0.5739890799999999 0.6860640750000001 Li
atom_frac 0.4897783050000000 0.9108166350000000 0.9404440500000000 Li
atom_frac 0.2430262100000001 0.9103700150000000 0.6917318250000003 Li
atom_frac 0.2446017950000000 0.5933146900000000 0.9428673100000000 Li
atom_frac 0.3598295700000002 0.4750086850000002 0.9408226350000005 Li
atom_frac 0.3663289950000000 0.0301237750000001 0.6908006750000001 Li
atom_frac 0.1528230400000000 0.7617688950000003 0.9437185550000000 Li
atom_frac 0.1583965450000000 0.7367986450000000 0.6991368550000001 Li
atom_frac 0.3987607800000000 0.7600408300000000 0.6905929850000001 Li
atom_frac 0.4152515950000000 0.7298020750000001 0.9421864050000004 Li
atom_frac 0.1131384349999999 0.4704254400000000 0.6935153099999999 Li
atom_frac 0.1238841850000000 0.0160294500000003 0.9446997450000001 Li
atom_frac 0.3355809050000001 0.7923303649999996 0.4910890150000000 Li
atom_frac 0.3625322699999999 0.6349842400000000 0.7852838300000000 Li
atom_frac 0.1118021250000001 0.6329689950000000 0.5377987900000002 Li
atom_frac 0.1410069900000000 0.8759906300000000 0.8186679000000000 Li
atom_frac 0.4918397750000000 0.0061790150000001 0.5404129350000000 Li
atom_frac 0.4926619900000000 0.4965778050000000 0.7951432450000000 Li
atom_frac 0.2450649500000001 0.7214427250000003 0.5774364750000003 Li
atom_frac 0.2475854650000000 0.7878624849999998 0.8269682950000001 Li
atom_frac 0.4945053300000000 0.7036416550000000 0.8412779500000001 Li
atom_frac 0.4980352000000000 0.7801555700000000 0.5716043100000000 Li
atom_frac 0.2446845600000000 0.0066278450000002 0.7960372999999999 Li
atom_frac 0.2409500100000000 0.5212636750000003 0.5653699200000001 Li
atom_frac 0.0281347350000000 0.7283923250000001 0.7470764750000001 Li
atom_frac 0.4042131799999999 0.8884044600000003 0.5831931300000001 Li
atom_frac 0.3766936399999999 0.6270794500000003 0.5621836600000000 Ge
atom_frac 0.1266335200000001 0.6226022250000000 0.8147014250000001 Ge
atom_frac 0.3767128450000001 0.8751696300000000 0.8121415400000002 P
atom_frac 0.1247365850000000 0.8744000450000001 0.5634395249999999 P
atom_frac 0.3505322000000002 0.9948839000000000 0.8405643850000004 S
atom_frac 0.3418220950000001 0.5029091400000000 0.5915859900000002 S
atom_frac 0.0908495350000000 0.7477031350000000 0.8435335150000001 S
atom_frac 0.0987863450000000 0.7584168550000000 0.5973365850000001 S
atom_frac 0.3445956099999999 0.7563792650000001 0.5898737300000000 S
atom_frac 0.3478279700000000 0.7598809750000002 0.8442463250000000 S
atom_frac 0.0959365500000000 0.9922216350000003 0.5912383400000000 S
atom_frac 0.0924807350000000 0.4977352150000002 0.8443760850000001 S
atom_frac 0.4712645250000000 0.6288046800000001 0.5931825350000002 S
atom_frac 0.4649953900000001 0.8675652099999999 0.8410664150000002 S
atom_frac 0.2130828550000000 0.8743179650000004 0.5904329000000000 S
atom_frac 0.2207926849999999 0.6329846900000003 0.8441976549999999 S
atom_frac 0.3469105050000000 0.8753116350000001 0.7242574850000000 S
atom_frac 0.3453595150000000 0.6323886150000003 0.9669255950000001 S
atom_frac 0.0916107250000000 0.6265764299999997 0.7191685850000000 S
atom_frac 0.0926103950000001 0.8691599300000001 0.9756204450000004 S
atom_frac 0.4429903150000001 0.6312306250000004 0.7489176650000001 S
atom_frac 0.4313517400000001 0.8719707800000004 0.9992033450000001 S
atom_frac 0.1884481050000000 0.8776169850000004 0.7506791899999999 S
atom_frac 0.1877697450000000 0.6292615899999998 0.0003286950000002 S
atom_frac 0.4980409450000001 0.8825211650000003 0.6833501450000000 I
atom_frac 0.5045270400000000 0.6109143950000001 0.9428640200000006 I
atom_frac 0.2564874100000001 0.6166616850000002 0.6882156400000001 I
atom_frac 0.2438521249999999 0.8888625050000003 0.9290529550000001 I
atom_frac 0.9918626499999998 0.0739890800000000 0.1860640750000000 Li
atom_frac 0.9897783050000000 0.4108166350000000 0.4404440500000000 Li
atom_frac 0.7430262100000001 0.4103700150000000 0.1917318250000000 Li
atom_frac 0.7446017950000001 0.0933146900000001 0.4428673100000002 Li
atom_frac 0.8598295700000000 0.9750086850000000 0.4408226350000002 Li
atom_frac 0.8663289950000000 0.5301237750000000 0.1908006750000000 Li
atom_frac 0.6528230399999999 0.2617688950000000 0.4437185550000000 Li
atom_frac 0.6583965450000000 0.2367986450000000 0.1991368550000000 Li
atom_frac 0.8987607800000000 0.2600408300000000 0.1905929850000001 Li
atom_frac 0.9152515950000000 0.2298020750000000 0.4421864050000002 Li
atom_frac 0.6131384350000000 0.9704254400000003 0.1935153100000000 Li
atom_frac 0.6238841850000000 0.5160294500000003 0.4446997450000000 Li
atom_frac 0.8355809049999999 0.2923303650000001 0.9910890150000001 Li
atom_frac 0.8625322700000000 0.1349842400000000 0.2852838300000001 Li
atom_frac 0.6118021250000000 0.1329689950000001 0.0377987900000000 Li
atom_frac 0.6410069899999999 0.3759906300000000 0.3186679000000000 Li
atom_frac 0.9918397750000001 0.5061790150000001 0.0404129350000000 Li
atom_frac 0.9926619900000001 0.9965778049999998 0.2951432450000000 Li
atom_frac 0.7450649499999999 0.2214427250000001 0.0774364750000000 Li
atom_frac 0.7475854650000001 0.2878624850000001 0.3269682950000000 Li
atom_frac 0.9945053300000000 0.2036416550000000 0.3412779500000000 Li
atom_frac 0.9980351999999999 0.2801555700000002 0.0716043100000000 Li
atom_frac 0.7446845600000001 0.5066278450000004 0.2960373000000000 Li
atom_frac 0.7409500099999998 0.0212636750000000 0.0653699200000000 Li
atom_frac 0.5281347350000000 0.2283923250000000 0.2470764750000000 Li
atom_frac 0.9042131800000001 0.3884044600000002 0.0831931300000000 Li
atom_frac 0.8766936400000001 0.1270794500000000 0.0621836600000000 Ge
atom_frac 0.6266335200000001 0.1226022250000000 0.3147014250000000 Ge
atom_frac 0.8767128449999999 0.3751696300000000 0.3121415400000000 P
atom_frac 0.6247365850000000 0.3744000450000002 0.0634395250000000 P
atom_frac 0.8505322000000001 0.4948839000000000 0.3405643850000001 S
atom_frac 0.8418220949999999 0.0029091400000000 0.0915859900000000 S
atom_frac 0.5908495350000000 0.2477031350000000 0.3435335150000001 S
atom_frac 0.5987863449999999 0.2584168550000000 0.0973365850000000 S
atom_frac 0.8445956100000001 0.2563792650000000 0.0898737300000000 S
atom_frac 0.8478279700000000 0.2598809750000001 0.3442463250000001 S
atom_frac 0.5959365499999999 0.4922216350000003 0.0912383400000000 S
atom_frac 0.5924807350000002 0.9977352150000003 0.3443760850000002 S
atom_frac 0.9712645249999998 0.1288046800000000 0.0931825350000000 S
atom_frac 0.9649953900000000 0.3675652099999999 0.3410664150000000 S
atom_frac 0.7130828550000000 0.3743179650000000 0.0904329000000000 S
atom_frac 0.7207926850000000 0.1329846900000000 0.3441976550000000 S
atom_frac 0.8469105050000000 0.3753116350000000 0.2242574850000001 S
atom_frac 0.8453595150000001 0.1323886150000000 0.4669255950000001 S
atom_frac 0.5916107250000000 0.1265764300000000 0.2191685850000000 S
atom_frac 0.5926103950000000 0.3691599300000002 0.4756204450000000 S
atom_frac 0.9429903150000000 0.1312306250000000 0.2489176650000000 S
atom_frac 0.9313517400000001 0.3719707800000001 0.4992033450000001 S
atom_frac 0.6884481050000000 0.3776169850000002 0.2506791900000001 S
atom_frac 0.6877697450000001 0.1292615900000001 0.5003286950000001 S
atom_frac 0.9980409450000001 0.3825211650000001 0.1833501450000000 I
atom_frac 0.0045270400000000 0.1109143950000001 0.4428640200000001 I
atom_frac 0.7564874100000001 0.1166616850000001 0.1882156400000000 I
atom_frac 0.7438521249999999 0.3888625050000001 0.4290529550000001 I
atom_frac 0.9918626500000000 0.0739890800000000 0.6860640750000000 Li
atom_frac 0.9897783050000003 0.4108166350000002 0.9404440500000003 Li
atom_frac 0.7430262100000001 0.4103700150000000 0.6917318250000004 Li
atom_frac 0.7446017950000001 0.0933146900000000 0.9428673100000001 Li
atom_frac 0.8598295700000000 0.9750086850000000 0.9408226350000001 Li
atom_frac 0.8663289950000003 0.5301237750000000 0.6908006750000004 Li
atom_frac 0.6528230400000001 0.2617688950000001 0.9437185550000003 Li
atom_frac 0.6583965450000000 0.2367986450000000 0.6991368550000002 Li
atom_frac 0.8987607800000001 0.2600408300000000 0.6905929850000004 Li
atom_frac 0.9152515950000000 0.2298020749999999 0.9421864049999999 Li
atom_frac 0.6131384350000000 0.9704254400000001 0.6935153100000002 Li
atom_frac 0.6238841850000001 0.5160294500000000 0.9446997450000001 Li
atom_frac 0.8355809049999999 0.2923303649999999 0.4910890150000001 Li
atom_frac 0.8625322700000000 0.1349842400000000 0.7852838300000000 Li
atom_frac 0.6118021250000001 0.1329689950000001 0.5377987900000002 Li
atom_frac 0.6410069899999999 0.3759906300000001 0.8186679000000001 Li
atom_frac 0.9918397750000001 0.5061790150000000 0.5404129350000000 Li
atom_frac 0.9926619900000002 0.9965778050000004 0.7951432450000003 Li
atom_frac 0.7450649499999999 0.2214427250000000 0.5774364750000001 Li
atom_frac 0.7475854650000001 0.2878624849999999 0.8269682950000000 Li
atom_frac 0.9945053300000001 0.2036416550000000 0.8412779500000002 Li
atom_frac 0.9980351999999999 0.2801555700000001 0.5716043100000000 Li
atom_frac 0.7446845600000001 0.5066278450000000 0.7960373000000004 Li
atom_frac 0.7409500100000000 0.0212636750000000 0.5653699200000001 Li
atom_frac 0.5281347350000000 0.2283923250000001 0.7470764750000005 Li
atom_frac 0.9042131800000001 0.3884044600000002 0.5831931300000001 Li
atom_frac 0.8766936400000001 0.1270794500000001 0.5621836600000002 Ge
atom_frac 0.6266335200000002 0.1226022250000000 0.8147014250000001 Ge
atom_frac 0.8767128450000001 0.3751696299999999 0.8121415400000003 P
atom_frac 0.6247365850000000 0.3744000450000002 0.5634395250000003 P
atom_frac 0.8505322000000001 0.4948839000000000 0.8405643850000000 S
atom_frac 0.8418220949999999 0.0029091400000000 0.5915859900000000 S
atom_frac 0.5908495350000000 0.2477031350000000 0.8435335150000001 S
atom_frac 0.5987863449999999 0.2584168550000000 0.5973365850000001 S
atom_frac 0.8445956100000001 0.2563792650000000 0.5898737300000000 S
atom_frac 0.8478279700000000 0.2598809750000001 0.8442463250000001 S
atom_frac 0.5959365499999999 0.4922216350000000 0.5912383400000000 S
atom_frac 0.5924807350000001 0.9977352150000003 0.8443760850000001 S
atom_frac 0.9712645249999998 0.1288046800000000 0.5931825350000002 S
atom_frac 0.9649953900000002 0.3675652100000000 0.8410664150000003 S
atom_frac 0.7130828550000000 0.3743179650000001 0.5904329000000000 S
atom_frac 0.7207926850000000 0.1329846900000000 0.8441976550000001 S
atom_frac 0.8469105050000000 0.3753116350000000 0.7242574850000000 S
atom_frac 0.8453595150000001 0.1323886150000000 0.9669255950000006 S
atom_frac 0.5916107250000000 0.1265764300000000 0.7191685850000000 S
atom_frac 0.5926103949999999 0.3691599300000001 0.9756204450000000 S
atom_frac 0.9429903150000000 0.1312306250000000 0.7489176650000000 S
atom_frac 0.9313517400000001 0.3719707800000001 0.9992033450000002 S
atom_frac 0.6884481050000000 0.3776169850000000 0.7506791900000001 S
atom_frac 0.6877697450000001 0.1292615900000001 0.0003286950000002 S
atom_frac 0.9980409450000001 0.3825211650000000 0.6833501450000000 I
atom_frac 0.0045270400000000 0.1109143950000000 0.9428640200000000 I
atom_frac 0.7564874100000002 0.1166616850000000 0.6882156400000002 I
atom_frac 0.7438521249999999 0.3888625050000000 0.9290529550000002 I
atom_frac 0.9918626500000000 0.5739890799999997 0.1860640750000001 Li
atom_frac 0.9897783050000000 0.9108166350000005 0.4404440500000000 Li
atom_frac 0.7430262100000001 0.9103700150000004 0.1917318250000000 Li
atom_frac 0.7446017949999999 0.5933146900000000 0.4428673100000002 Li
atom_frac 0.8598295700000000 0.4750086850000000 0.4408226350000002 Li
atom_frac 0.8663289950000000 0.0301237750000002 0.1908006750000000 Li
atom_frac 0.6528230399999999 0.7617688949999999 0.4437185550000000 Li
atom_frac 0.6583965450000000 0.7367986449999998 0.1991368550000000 Li
atom_frac 0.8987607800000000 0.7600408299999998 0.1905929850000001 Li
atom_frac 0.9152515950000000 0.7298020750000004 0.4421864050000002 Li
atom_frac 0.6131384350000000 0.4704254400000002 0.1935153100000000 Li
atom_frac 0.6238841850000000 0.0160294500000003 0.4446997450000000 Li
atom_frac 0.8355809049999999 0.7923303650000001 0.9910890150000001 Li
atom_frac 0.8625322700000000 0.6349842400000000 0.2852838300000001 Li
atom_frac 0.6118021250000000 0.6329689950000000 0.0377987900000000 Li
atom_frac 0.6410069899999999 0.8759906300000003 0.3186679000000000 Li
atom_frac 0.9918397750000000 0.0061790149999999 0.0404129350000000 Li
atom_frac 0.9926619900000001 0.4965778050000000 0.2951432450000000 Li
atom_frac 0.7450649499999999 0.7214427250000001 0.0774364750000000 Li
atom_frac 0.7475854649999999 0.7878624850000000 0.3269682950000000 Li
atom_frac 0.9945053300000000 0.7036416550000003 0.3412779500000000 Li
atom_frac 0.9980351999999999 0.7801555700000001 0.0716043100000000 Li
atom_frac 0.7446845599999999 0.0066278450000000 0.2960373000000001 Li
atom_frac 0.7409500099999998 0.5212636750000001 0.0653699200000000 Li
atom_frac 0.5281347350000000 0.7283923250000004 0.2470764750000000 Li
atom_frac 0.9042131800000001 0.8884044600000002 0.0831931300000000 Li
atom_frac 0.8766936400000001 0.6270794500000001 0.0621836600000000 Ge
atom_frac 0.6266335200000001 0.6226022250000000 0.3147014250000000 Ge
atom_frac 0.8767128449999999 0.8751696300000000 0.3121415400000000 P
atom_frac 0.6247365850000000 0.8744000450000003 0.0634395250000000 P
atom_frac 0.8505322000000000 0.9948838999999999 0.3405643850000001 S
atom_frac 0.8418220949999999 0.5029091400000001 0.0915859900000000 S
atom_frac 0.5908495350000000 0.7477031350000004 0.3435335150000001 S
atom_frac 0.5987863449999999 0.7584168549999999 0.0973365850000000 S
atom_frac 0.8445956100000001 0.7563792650000002 0.0898737300000000 S
atom_frac 0.8478279700000000 0.7598809750000000 0.3442463250000001 S
atom_frac 0.5959365499999999 0.9922216350000002 0.0912383400000000 S
atom_frac 0.5924807350000002 0.4977352150000000 0.3443760850000002 S
atom_frac 0.9712645249999998 0.6288046800000001 0.0931825350000000 S
atom_frac 0.9649953900000000 0.8675652100000001 0.3410664150000000 S
atom_frac 0.7130828550000000 0.8743179650000001 0.0904329000000000 S
atom_frac 0.7207926850000000 0.6329846900000000 0.3441976550000000 S
atom_frac 0.8469105050000000 0.8753116350000003 0.2242574850000000 S
atom_frac 0.8453595150000001 0.6323886149999998 0.4669255950000001 S
atom_frac 0.5916107250000000 0.6265764300000001 0.2191685850000000 S
atom_frac 0.5926103950000000 0.8691599300000001 0.4756204450000000 S
atom_frac 0.9429903150000000 0.6312306250000000 0.2489176650000000 S
atom_frac 0.9313517400000000 0.8719707800000001 0.4992033450000001 S
atom_frac 0.6884481050000000 0.8776169850000001 0.2506791900000001 S
atom_frac 0.6877697450000001 0.6292615900000000 0.5003286950000001 S
atom_frac 0.9980409450000001 0.8825211650000000 0.1833501450000000 I
atom_frac 0.0045270400000000 0.6109143950000003 0.4428640200000001 I
atom_frac 0.7564874100000001 0.6166616850000001 0.1882156400000000 I
atom_frac 0.7438521249999999 0.8888625050000001 0.4290529550000001 I
atom_frac 0.9918626500000000 0.5739890800000000 0.6860640750000000 Li
atom_frac 0.9897783050000000 0.9108166350000005 0.9404440500000000 Li
atom_frac 0.7430262100000001 0.9103700150000004 0.6917318250000004 Li
atom_frac 0.7446017949999999 0.5933146900000000 0.9428673100000001 Li
atom_frac 0.8598295700000000 0.4750086850000000 0.9408226350000001 Li
atom_frac 0.8663289950000003 0.0301237750000001 0.6908006750000004 Li
atom_frac 0.6528230400000002 0.7617688950000003 0.9437185550000005 Li
atom_frac 0.6583965450000000 0.7367986449999998 0.6991368550000002 Li
atom_frac 0.8987607800000000 0.7600408300000000 0.6905929850000002 Li
atom_frac 0.9152515950000001 0.7298020750000001 0.9421864050000002 Li
atom_frac 0.6131384350000000 0.4704254400000000 0.6935153100000002 Li
atom_frac 0.6238841850000000 0.0160294500000003 0.9446997450000001 Li
atom_frac 0.8355809049999999 0.7923303650000000 0.4910890150000003 Li
atom_frac 0.8625322700000000 0.6349842400000000 0.7852838300000005 Li
atom_frac 0.6118021250000001 0.6329689950000003 0.5377987900000002 Li
atom_frac 0.6410069899999999 0.8759906300000001 0.8186679000000001 Li
atom_frac 0.9918397750000001 0.0061790150000001 0.5404129350000000 Li
atom_frac 0.9926619900000001 0.4965778049999999 0.7951432450000000 Li
atom_frac 0.7450649499999999 0.7214427250000004 0.5774364750000001 Li
atom_frac 0.7475854649999999 0.7878624850000000 0.8269682950000000 Li
atom_frac 0.9945053300000003 0.7036416550000001 0.8412779500000002 Li
atom_frac 0.9980351999999999 0.7801555700000001 0.5716043100000000 Li
atom_frac 0.7446845599999999 0.0066278450000002 0.7960373000000004 Li
atom_frac 0.7409500100000000 0.5212636750000001 0.5653699200000001 Li
atom_frac 0.5281347350000000 0.7283923250000001 0.7470764750000004 Li
atom_frac 0.9042131800000001 0.8884044600000004 0.5831931300000001 Li
atom_frac 0.8766936400000001 0.6270794500000003 0.5621836600000002 Ge
atom_frac 0.6266335200000002 0.6226022250000004 0.8147014250000001 Ge
atom_frac 0.8767128450000001 0.8751696299999998 0.8121415400000003 P
atom_frac 0.6247365850000000 0.8744000450000003 0.5634395250000003 P
atom_frac 0.8505322000000000 0.9948839000000003 0.8405643850000002 S
atom_frac 0.8418220949999999 0.5029091400000001 0.5915859900000000 S
atom_frac 0.5908495350000000 0.7477031350000004 0.8435335150000001 S
atom_frac 0.5987863449999999 0.7584168549999999 0.5973365850000001 S
atom_frac 0.8445956100000001 0.7563792650000002 0.5898737300000000 S
atom_frac 0.8478279700000000 0.7598809750000004 0.8442463250000001 S
atom_frac 0.5959365499999999 0.9922216350000004 0.5912383400000000 S
atom_frac 0.5924807350000001 0.4977352150000001 0.8443760850000001 S
atom_frac 0.9712645249999998 0.6288046800000001 0.5931825350000002 S
atom_frac 0.9649953900000002 0.8675652100000000 0.8410664150000003 S
atom_frac 0.7130828550000000 0.8743179650000004 0.5904329000000000 S
atom_frac 0.7207926850000000 0.6329846900000000 0.8441976550000001 S
atom_frac 0.8469105050000000 0.8753116350000001 0.7242574850000001 S
atom_frac 0.8453595150000001 0.6323886150000003 0.9669255950000004 S
atom_frac 0.5916107250000000 0.6265764300000000 0.7191685850000000 S
atom_frac 0.5926103949999999 0.8691599300000000 0.9756204450000000 S