# 
# This is the geometry file that corresponds to the current relaxation step.
# If you do not want this file to be written, set the "write_restart_geometry" flag to .false.
#  aims_uuid : 5AAEE216-CB71-402E-AC2D-656F810C62EA                                
# 
lattice_vector     24.66746946     -0.04523697      0.00198521
lattice_vector     -0.18392975     14.37971754      0.01752109
lattice_vector     -8.29724292     -0.00389558     23.38243279
atom_frac       0.49185045      0.07398942      0.18607709 Li
atom_frac       0.48978419      0.41086704      0.44046427 Li
atom_frac       0.24302132      0.41036763      0.19174239 Li
atom_frac       0.24461360      0.09332191      0.44285560 Li
atom_frac       0.35982242      0.97502341      0.44081741 Li
atom_frac       0.36631480      0.53017001      0.19078796 Li
atom_frac       0.15284663      0.26179547      0.44370124 Li
atom_frac       0.15841079      0.23676003      0.19914658 Li
atom_frac       0.39875778      0.26005822      0.19059371 Li
atom_frac       0.41526450      0.22976063      0.44216924 Li
atom_frac       0.11313935      0.97041220      0.19352828 Li
atom_frac       0.12374696      0.51619371      0.44467778 Li
atom_frac       0.33569576      0.29233502      0.99114375 Li
atom_frac       0.36252819      0.13499161      0.28526851 Li
atom_frac       0.11183008      0.13298387      0.03783304 Li
atom_frac       0.14103812      0.37597969      0.31870211 Li
atom_frac       0.49185203      0.50617009      0.04044959 Li
atom_frac       0.49265099      0.99662880      0.29518477 Li
atom_frac       0.24506564      0.22136654      0.07744846 Li
atom_frac       0.24759789      0.28785849      0.32697638 Li
atom_frac       0.49450611      0.20367655      0.34127617 Li
atom_frac       0.49801066      0.28020451      0.07162891 Li
atom_frac       0.24469838      0.50659435      0.29604434 Li
atom_frac       0.24091283      0.02107401      0.06518037 Li
atom_frac       0.02812886      0.22838428      0.24706624 Li
atom_frac       0.40414224      0.38842632      0.08313727 Li
atom_frac       0.37669576      0.12707009      0.06216458 Ge
atom_frac       0.12662845      0.12258305      0.31469099 Ge
atom_frac       0.37671875      0.37515412      0.31214662 P
atom_frac       0.12474194      0.37439673      0.06344808 P
atom_frac       0.35054664      0.49487322      0.34057457 S
atom_frac       0.34179974      0.00294157      0.09157624 S
atom_frac       0.09085263      0.24768207      0.34352730 S
atom_frac       0.09877610      0.25842174      0.09734456 S
atom_frac       0.34457956      0.25637570      0.08987867 S
atom_frac       0.34783908      0.25985795      0.34425039 S
atom_frac       0.09595702      0.49221613      0.09126246 S
atom_frac       0.09247667      0.99771293      0.34436945 S
atom_frac       0.47126342      0.12881262      0.09319811 S
atom_frac       0.46500055      0.36760095      0.34109149 S
atom_frac       0.21308833      0.37425350      0.09044635 S
atom_frac       0.22078747      0.13299257      0.34417636 S
atom_frac       0.34691235      0.37533338      0.22426435 S
atom_frac       0.34536475      0.13239264      0.46690875 S
atom_frac       0.09160092      0.12656424      0.21915770 S
atom_frac       0.09263147      0.36919473      0.47562905 S
atom_frac       0.44299321      0.13128470      0.24891433 S
atom_frac       0.43136896      0.37199696      0.49919242 S
atom_frac       0.18844480      0.37758355      0.25068492 S
atom_frac       0.18775722      0.12927155      0.50030032 S
atom_frac       0.49799845      0.38252432      0.18331980 I
atom_frac       0.50454683      0.11090301      0.44288379 I
atom_frac       0.25648538      0.11665183      0.18825956 I
atom_frac       0.24389357      0.38880122      0.42906182 I
atom_frac       0.49185045      0.07398939      0.68607710 Li
atom_frac       0.48978420      0.41086703      0.94046427 Li
atom_frac       0.24302132      0.41036765      0.69174239 Li
atom_frac       0.24461360      0.09332190      0.94285560 Li
atom_frac       0.35982243      0.97502341      0.94081741 Li
atom_frac       0.36631482      0.53016999      0.69078796 Li
atom_frac       0.15284664      0.26179548      0.94370124 Li
atom_frac       0.15841080      0.23676002      0.69914657 Li
atom_frac       0.39875778      0.26005823      0.69059370 Li
atom_frac       0.41526453      0.22976059      0.94216924 Li
atom_frac       0.11313936      0.97041221      0.69352828 Li
atom_frac       0.12374695      0.51619370      0.94467778 Li
atom_frac       0.33569574      0.29233504      0.49114373 Li
atom_frac       0.36252820      0.13499161      0.78526851 Li
atom_frac       0.11183007      0.13298387      0.53783303 Li
atom_frac       0.14103812      0.37597969      0.81870211 Li
atom_frac       0.49185203      0.50617008      0.54044960 Li
atom_frac       0.49265099      0.99662880      0.79518477 Li
atom_frac       0.24506564      0.22136654      0.57744846 Li
atom_frac       0.24759789      0.28785847      0.82697636 Li
atom_frac       0.49450611      0.20367655      0.84127617 Li
atom_frac       0.49801066      0.28020451      0.57162890 Li
atom_frac       0.24469838      0.50659435      0.79604434 Li
atom_frac       0.24091283      0.02107399      0.56518036 Li
atom_frac       0.02812886      0.22838428      0.74706624 Li
atom_frac       0.40414224      0.38842631      0.58313727 Li
atom_frac       0.37669577      0.12707009      0.56216457 Ge
atom_frac       0.12662846      0.12258305      0.81469098 Ge
atom_frac       0.37671875      0.37515411      0.81214662 P
atom_frac       0.12474194      0.37439673      0.56344808 P
atom_frac       0.35054664      0.49487322      0.84057457 S
atom_frac       0.34179975      0.00294157      0.59157623 S
atom_frac       0.09085264      0.24768206      0.84352729 S
atom_frac       0.09877610      0.25842174      0.59734456 S
atom_frac       0.34457956      0.25637569      0.58987867 S
atom_frac       0.34783908      0.25985795      0.84425040 S
atom_frac       0.09595702      0.49221612      0.59126246 S
atom_frac       0.09247667      0.99771294      0.84436944 S
atom_frac       0.47126343      0.12881263      0.59319812 S
atom_frac       0.46500055      0.36760096      0.84109148 S
atom_frac       0.21308833      0.37425349      0.59044635 S
atom_frac       0.22078748      0.13299257      0.84417637 S
atom_frac       0.34691234      0.37533337      0.72426435 S
atom_frac       0.34536476      0.13239263      0.96690875 S
atom_frac       0.09160091      0.12656424      0.71915770 S
atom_frac       0.09263147      0.36919472      0.97562905 S
atom_frac       0.44299322      0.13128471      0.74891433 S
atom_frac       0.43136896      0.37199695      0.99919242 S
atom_frac       0.18844480      0.37758355      0.75068492 S
atom_frac       0.18775721      0.12927155      0.00030032 S
atom_frac       0.49799866      0.38252430      0.68331967 I
atom_frac       0.50454717      0.11090278      0.94288380 I
atom_frac       0.25648559      0.11665170      0.68825946 I
atom_frac       0.24389384      0.38880121      0.92906159 I
atom_frac       0.49185045      0.57398944      0.18607709 Li
atom_frac       0.48978420      0.91086705      0.44046427 Li
atom_frac       0.24302132      0.91036763      0.19174239 Li
atom_frac       0.24461360      0.59332191      0.44285560 Li
atom_frac       0.35982241      0.47502340      0.44081741 Li
atom_frac       0.36631480      0.03017002      0.19078796 Li
atom_frac       0.15284664      0.76179548      0.44370124 Li
atom_frac       0.15841080      0.73676002      0.19914657 Li
atom_frac       0.39875778      0.76005823      0.19059371 Li
atom_frac       0.41526450      0.72976062      0.44216924 Li
atom_frac       0.11313935      0.47041219      0.19352828 Li
atom_frac       0.12374696      0.01619371      0.44467778 Li
atom_frac       0.33569578      0.79233500      0.99114376 Li
atom_frac       0.36252818      0.63499160      0.28526850 Li
atom_frac       0.11183008      0.63298388      0.03783303 Li
atom_frac       0.14103812      0.87597968      0.31870210 Li
atom_frac       0.49185203      0.00617008      0.04044961 Li
atom_frac       0.49265099      0.49662880      0.29518477 Li
atom_frac       0.24506564      0.72136654      0.07744846 Li
atom_frac       0.24759789      0.78785847      0.32697636 Li
atom_frac       0.49450611      0.70367657      0.34127616 Li
atom_frac       0.49801066      0.78020451      0.07162890 Li
atom_frac       0.24469838      0.00659435      0.29604434 Li
atom_frac       0.24091283      0.52107401      0.06518037 Li
atom_frac       0.02812886      0.72838427      0.24706624 Li
atom_frac       0.40414223      0.88842631      0.08313725 Li
atom_frac       0.37669577      0.62707009      0.06216457 Ge
atom_frac       0.12662846      0.62258304      0.31469098 Ge
atom_frac       0.37671875      0.87515412      0.31214662 P
atom_frac       0.12474194      0.87439673      0.06344808 P
atom_frac       0.35054665      0.99487322      0.34057457 S
atom_frac       0.34179975      0.50294157      0.09157624 S
atom_frac       0.09085264      0.74768206      0.34352729 S
atom_frac       0.09877610      0.75842174      0.09734456 S
atom_frac       0.34457956      0.75637568      0.08987867 S
atom_frac       0.34783908      0.75985795      0.34425039 S
atom_frac       0.09595702      0.99221612      0.09126246 S
atom_frac       0.09247667      0.49771294      0.34436944 S
atom_frac       0.47126343      0.62881263      0.09319811 S
atom_frac       0.46500055      0.86760096      0.34109149 S
atom_frac       0.21308833      0.87425350      0.09044635 S
atom_frac       0.22078748      0.63299257      0.34417637 S
atom_frac       0.34691235      0.87533338      0.22426435 S
atom_frac       0.34536475      0.63239263      0.46690875 S
atom_frac       0.09160092      0.62656423      0.21915770 S
atom_frac       0.09263147      0.86919473      0.47562905 S
atom_frac       0.44299321      0.63128470      0.24891433 S
atom_frac       0.43136896      0.87199695      0.49919242 S
atom_frac       0.18844480      0.87758355      0.25068492 S
atom_frac       0.18775721      0.62927155      0.50030032 S
atom_frac       0.49799856      0.88252417      0.18331962 I
atom_frac       0.50454676      0.61090286      0.44288363 I
atom_frac       0.25648545      0.61665169      0.18825945 I
atom_frac       0.24389372      0.88880119      0.42906153 I
atom_frac       0.49185045      0.57398944      0.68607710 Li
atom_frac       0.48978420      0.91086704      0.94046426 Li
atom_frac       0.24302132      0.91036765      0.69174239 Li
atom_frac       0.24461360      0.59332191      0.94285560 Li
atom_frac       0.35982243      0.47502340      0.94081741 Li
atom_frac       0.36631481      0.03017000      0.69078796 Li
atom_frac       0.15284665      0.76179548      0.94370124 Li
atom_frac       0.15841081      0.73676002      0.69914657 Li
atom_frac       0.39875778      0.76005823      0.69059370 Li
atom_frac       0.41526455      0.72976057      0.94216924 Li
atom_frac       0.11313936      0.47041220      0.69352827 Li
atom_frac       0.12374696      0.01619370      0.94467778 Li
atom_frac       0.33569574      0.79233503      0.49114373 Li
atom_frac       0.36252820      0.63499160      0.78526851 Li
atom_frac       0.11183007      0.63298387      0.53783303 Li
atom_frac       0.14103812      0.87597968      0.81870211 Li
atom_frac       0.49185202      0.00617008      0.54044961 Li
atom_frac       0.49265099      0.49662881      0.79518477 Li
atom_frac       0.24506564      0.72136654      0.57744846 Li
atom_frac       0.24759789      0.78785847      0.82697635 Li
atom_frac       0.49450611      0.70367658      0.84127615 Li
atom_frac       0.49801067      0.78020451      0.57162890 Li
atom_frac       0.24469838      0.00659435      0.79604434 Li
atom_frac       0.24091283      0.52107399      0.56518036 Li
atom_frac       0.02812886      0.72838428      0.74706624 Li
atom_frac       0.40414224      0.88842631      0.58313726 Li
atom_frac       0.37669579      0.62707008      0.56216457 Ge
atom_frac       0.12662847      0.62258303      0.81469098 Ge
atom_frac       0.37671875      0.87515412      0.81214662 P
atom_frac       0.12474194      0.87439672      0.56344808 P
atom_frac       0.35054665      0.99487322      0.84057457 S
atom_frac       0.34179975      0.50294157      0.59157623 S
atom_frac       0.09085265      0.74768205      0.84352729 S
atom_frac       0.09877610      0.75842174      0.59734456 S
atom_frac       0.34457956      0.75637568      0.58987866 S
atom_frac       0.34783909      0.75985795      0.84425040 S
atom_frac       0.09595702      0.99221612      0.59126246 S
atom_frac       0.09247667      0.49771294      0.84436944 S
atom_frac       0.47126344      0.62881263      0.59319812 S
atom_frac       0.46500055      0.86760096      0.84109148 S
atom_frac       0.21308833      0.87425349      0.59044635 S
atom_frac       0.22078748      0.63299257      0.84417637 S
atom_frac       0.34691235      0.87533338      0.72426435 S
atom_frac       0.34536476      0.63239263      0.96690875 S
atom_frac       0.09160092      0.62656424      0.71915770 S
atom_frac       0.09263147      0.86919472      0.97562905 S
atom_frac       0.44299321      0.63128470      0.74891433 S
atom_frac       0.43136896      0.87199695      0.99919241 S
atom_frac       0.18844480      0.87758355      0.75068492 S
atom_frac       0.18775721      0.62927155      0.00030032 S
atom_frac       0.49799876      0.88252403      0.68331956 I
atom_frac       0.50454723      0.61090271      0.94288359 I
atom_frac       0.25648574      0.61665158      0.68825936 I
atom_frac       0.24389395      0.88880106      0.92906152 I
atom_frac       0.99185045      0.07398942      0.18607709 Li
atom_frac       0.98978419      0.41086703      0.44046427 Li
atom_frac       0.74302132      0.41036763      0.19174239 Li
atom_frac       0.74461360      0.09332192      0.44285560 Li
atom_frac       0.85982241      0.97502340      0.44081741 Li
atom_frac       0.86631479      0.53017002      0.19078796 Li
atom_frac       0.65284662      0.26179546      0.44370124 Li
atom_frac       0.65841078      0.23676004      0.19914658 Li
atom_frac       0.89875777      0.26005821      0.19059371 Li
atom_frac       0.91526452      0.22976060      0.44216924 Li
atom_frac       0.61313937      0.97041222      0.19352828 Li
atom_frac       0.62374694      0.51619372      0.44467778 Li
atom_frac       0.83569577      0.29233501      0.99114375 Li
atom_frac       0.86252819      0.13499161      0.28526851 Li
atom_frac       0.61183009      0.13298388      0.03783304 Li
atom_frac       0.64103812      0.37597969      0.31870212 Li
atom_frac       0.99185203      0.50617012      0.04044957 Li
atom_frac       0.99265099      0.99662880      0.29518477 Li
atom_frac       0.74506564      0.22136652      0.07744848 Li
atom_frac       0.74759789      0.28785851      0.32697640 Li
atom_frac       0.99450611      0.20367657      0.34127615 Li
atom_frac       0.99801066      0.28020452      0.07162891 Li
atom_frac       0.74469838      0.50659435      0.29604435 Li
atom_frac       0.74091283      0.02107401      0.06518038 Li
atom_frac       0.52812885      0.22838432      0.24706622 Li
atom_frac       0.90414226      0.38842631      0.08313729 Li
atom_frac       0.87669576      0.12707009      0.06216459 Ge
atom_frac       0.62662844      0.12258305      0.31469100 Ge
atom_frac       0.87671874      0.37515411      0.31214663 P
atom_frac       0.62474195      0.37439673      0.06344808 P
atom_frac       0.85054664      0.49487322      0.34057457 S
atom_frac       0.84179974      0.00294155      0.09157624 S
atom_frac       0.59085262      0.24768207      0.34352729 S
atom_frac       0.59877610      0.25842174      0.09734457 S
atom_frac       0.84457956      0.25637571      0.08987868 S
atom_frac       0.84783908      0.25985795      0.34425040 S
atom_frac       0.59595703      0.49221613      0.09126246 S
atom_frac       0.59247667      0.99771292      0.34436945 S
atom_frac       0.97126342      0.12881263      0.09319811 S
atom_frac       0.96500054      0.36760096      0.34109149 S
atom_frac       0.71308833      0.37425350      0.09044635 S
atom_frac       0.72078746      0.13299258      0.34417636 S
atom_frac       0.84691234      0.37533338      0.22426435 S
atom_frac       0.84536476      0.13239264      0.46690876 S
atom_frac       0.59160091      0.12656424      0.21915772 S
atom_frac       0.59263147      0.36919473      0.47562905 S
atom_frac       0.94299321      0.13128469      0.24891433 S
atom_frac       0.93136895      0.37199695      0.49919242 S
atom_frac       0.68844481      0.37758355      0.25068493 S
atom_frac       0.68775722      0.12927155      0.50030033 S
atom_frac       0.99799828      0.38252435      0.18332019 I
atom_frac       0.00454700      0.11090292      0.44288358 I
atom_frac       0.75648513      0.11665178      0.18825999 I
atom_frac       0.74389340      0.38880141      0.42906216 I
atom_frac       0.99185045      0.07398940      0.68607709 Li
atom_frac       0.98978420      0.41086703      0.94046427 Li
atom_frac       0.74302132      0.41036764      0.69174240 Li
atom_frac       0.74461361      0.09332191      0.94285560 Li
atom_frac       0.85982242      0.97502340      0.94081741 Li
atom_frac       0.86631481      0.53017000      0.69078796 Li
atom_frac       0.65284663      0.26179547      0.94370124 Li
atom_frac       0.65841079      0.23676003      0.69914658 Li
atom_frac       0.89875777      0.26005822      0.69059370 Li
atom_frac       0.91526455      0.22976057      0.94216925 Li
atom_frac       0.61313937      0.97041222      0.69352828 Li
atom_frac       0.62374694      0.51619371      0.94467778 Li
atom_frac       0.83569572      0.29233505      0.49114372 Li
atom_frac       0.86252820      0.13499161      0.78526852 Li
atom_frac       0.61183007      0.13298387      0.53783303 Li
atom_frac       0.64103812      0.37597969      0.81870212 Li
atom_frac       0.99185202      0.50617010      0.54044959 Li
atom_frac       0.99265099      0.99662880      0.79518477 Li
atom_frac       0.74506564      0.22136653      0.57744847 Li
atom_frac       0.74759789      0.28785848      0.82697639 Li
atom_frac       0.99450611      0.20367659      0.84127613 Li
atom_frac       0.99801066      0.28020452      0.57162891 Li
atom_frac       0.74469838      0.50659435      0.79604435 Li
atom_frac       0.74091283      0.02107399      0.56518037 Li
atom_frac       0.52812885      0.22838434      0.74706621 Li
atom_frac       0.90414226      0.38842631      0.58313729 Li
atom_frac       0.87669577      0.12707009      0.56216459 Ge
atom_frac       0.62662844      0.12258305      0.81469099 Ge
atom_frac       0.87671874      0.37515411      0.81214663 P
atom_frac       0.62474195      0.37439672      0.56344808 P
atom_frac       0.85054664      0.49487322      0.84057457 S
atom_frac       0.84179975      0.00294156      0.59157624 S
atom_frac       0.59085262      0.24768207      0.84352729 S
atom_frac       0.59877610      0.25842174      0.59734456 S
atom_frac       0.84457956      0.25637571      0.58987867 S
atom_frac       0.84783908      0.25985795      0.84425040 S
atom_frac       0.59595703      0.49221612      0.59126246 S
atom_frac       0.59247667      0.99771292      0.84436945 S
atom_frac       0.97126343      0.12881263      0.59319812 S
atom_frac       0.96500055      0.36760096      0.84109149 S
atom_frac       0.71308833      0.37425349      0.59044635 S
atom_frac       0.72078746      0.13299257      0.84417636 S
atom_frac       0.84691234      0.37533337      0.72426435 S
atom_frac       0.84536476      0.13239263      0.96690877 S
atom_frac       0.59160091      0.12656424      0.71915771 S
atom_frac       0.59263147      0.36919472      0.97562905 S
atom_frac       0.94299321      0.13128469      0.74891432 S
atom_frac       0.93136896      0.37199695      0.99919242 S
atom_frac       0.68844480      0.37758355      0.75068492 S
atom_frac       0.68775722      0.12927155      0.00030032 S
atom_frac       0.99799848      0.38252431      0.68332009 I
atom_frac       0.00454728      0.11090284      0.94288344 I
atom_frac       0.75648545      0.11665171      0.68825979 I
atom_frac       0.74389378      0.38880126      0.92906195 I
atom_frac       0.99185045      0.57398945      0.18607709 Li
atom_frac       0.98978420      0.91086705      0.44046427 Li
atom_frac       0.74302132      0.91036762      0.19174239 Li
atom_frac       0.74461360      0.59332194      0.44285560 Li
atom_frac       0.85982240      0.47502339      0.44081741 Li
atom_frac       0.86631477      0.03017003      0.19078796 Li
atom_frac       0.65284662      0.76179546      0.44370124 Li
atom_frac       0.65841079      0.73676003      0.19914658 Li
atom_frac       0.89875777      0.76005822      0.19059371 Li
atom_frac       0.91526454      0.72976058      0.44216925 Li
atom_frac       0.61313936      0.47041221      0.19352828 Li
atom_frac       0.62374695      0.01619372      0.44467778 Li
atom_frac       0.83569577      0.79233500      0.99114376 Li
atom_frac       0.86252819      0.63499161      0.28526851 Li
atom_frac       0.61183008      0.63298388      0.03783304 Li
atom_frac       0.64103813      0.87597968      0.31870212 Li
atom_frac       0.99185202      0.00617010      0.04044959 Li
atom_frac       0.99265099      0.49662880      0.29518478 Li
atom_frac       0.74506564      0.72136653      0.07744847 Li
atom_frac       0.74759789      0.78785850      0.32697639 Li
atom_frac       0.99450611      0.70367659      0.34127614 Li
atom_frac       0.99801066      0.78020452      0.07162891 Li
atom_frac       0.74469838      0.00659435      0.29604435 Li
atom_frac       0.74091284      0.52107401      0.06518038 Li
atom_frac       0.52812885      0.72838432      0.24706622 Li
atom_frac       0.90414225      0.88842631      0.08313727 Li
atom_frac       0.87669577      0.62707009      0.06216458 Ge
atom_frac       0.62662845      0.62258305      0.31469099 Ge
atom_frac       0.87671874      0.87515411      0.31214663 P
atom_frac       0.62474195      0.87439672      0.06344808 P
atom_frac       0.85054665      0.99487322      0.34057457 S
atom_frac       0.84179975      0.50294156      0.09157624 S
atom_frac       0.59085262      0.74768207      0.34352729 S
atom_frac       0.59877610      0.75842174      0.09734457 S
atom_frac       0.84457956      0.75637569      0.08987867 S
atom_frac       0.84783908      0.75985795      0.34425040 S
atom_frac       0.59595703      0.99221612      0.09126246 S
atom_frac       0.59247667      0.49771293      0.34436945 S
atom_frac       0.97126343      0.62881263      0.09319811 S
atom_frac       0.96500054      0.86760096      0.34109149 S
atom_frac       0.71308833      0.87425350      0.09044635 S
atom_frac       0.72078747      0.63299258      0.34417637 S
atom_frac       0.84691235      0.87533338      0.22426435 S
atom_frac       0.84536476      0.63239263      0.46690876 S
atom_frac       0.59160092      0.62656423      0.21915771 S
atom_frac       0.59263147      0.86919473      0.47562905 S
atom_frac       0.94299320      0.63128469      0.24891433 S
atom_frac       0.93136896      0.87199695      0.49919242 S
atom_frac       0.68844480      0.87758355      0.25068492 S
atom_frac       0.68775721      0.62927155      0.50030033 S
atom_frac       0.99799837      0.88252417      0.18331999 I
atom_frac       0.00454713      0.61090275      0.44288343 I
atom_frac       0.75648531      0.61665169      0.18825981 I
atom_frac       0.74389361      0.88880114      0.42906205 I
atom_frac       0.99185045      0.57398944      0.68607709 Li
atom_frac       0.98978420      0.91086704      0.94046427 Li
atom_frac       0.74302132      0.91036764      0.69174239 Li
atom_frac       0.74461361      0.59332192      0.94285560 Li
atom_frac       0.85982242      0.47502340      0.94081741 Li
atom_frac       0.86631479      0.03017001      0.69078796 Li
atom_frac       0.65284663      0.76179547      0.94370124 Li
atom_frac       0.65841080      0.73676002      0.69914658 Li
atom_frac       0.89875778      0.76005823      0.69059371 Li
atom_frac       0.91526457      0.72976054      0.94216925 Li
atom_frac       0.61313937      0.47041222      0.69352828 Li
atom_frac       0.62374694      0.01619371      0.94467778 Li
atom_frac       0.83569576      0.79233501      0.49114375 Li
atom_frac       0.86252821      0.63499161      0.78526852 Li
atom_frac       0.61183006      0.63298387      0.53783302 Li
atom_frac       0.64103812      0.87597968      0.81870211 Li
atom_frac       0.99185202      0.00617009      0.54044960 Li
atom_frac       0.99265099      0.49662881      0.79518477 Li
atom_frac       0.74506564      0.72136653      0.57744847 Li
atom_frac       0.74759789      0.78785849      0.82697638 Li
atom_frac       0.99450611      0.70367661      0.84127612 Li
atom_frac       0.99801066      0.78020452      0.57162890 Li
atom_frac       0.74469838      0.00659435      0.79604435 Li
atom_frac       0.74091283      0.52107399      0.56518037 Li
atom_frac       0.52812886      0.72838431      0.74706622 Li
atom_frac       0.90414225      0.88842631      0.58313728 Li
atom_frac       0.87669578      0.62707009      0.56216458 Ge
atom_frac       0.62662846      0.62258304      0.81469099 Ge
atom_frac       0.87671874      0.87515411      0.81214662 P
atom_frac       0.62474195      0.87439672      0.56344808 P
atom_frac       0.85054665      0.99487322      0.84057457 S
atom_frac       0.84179975      0.50294156      0.59157624 S
atom_frac       0.59085263      0.74768206      0.84352729 S
atom_frac       0.59877610      0.75842174      0.59734456 S
atom_frac       0.84457956      0.75637569      0.58987867 S
atom_frac       0.84783909      0.75985796      0.84425041 S
atom_frac       0.59595703      0.99221612      0.59126246 S
atom_frac       0.59247667      0.49771293      0.84436945 S
atom_frac       0.97126343      0.62881263      0.59319811 S
atom_frac       0.96500054      0.86760097      0.84109149 S
atom_frac       0.71308833      0.87425349      0.59044635 S
atom_frac       0.72078748      0.63299258      0.84417637 S
atom_frac       0.84691235      0.87533338      0.72426435 S
atom_frac       0.84536477      0.63239263      0.96690876 S
atom_frac       0.59160092      0.62656424      0.71915771 S
atom_frac       0.59263147      0.86919472      0.97562905 S
atom_frac       0.94299321      0.63128469      0.74891432 S
atom_frac       0.93136896      0.87199694      0.99919241 S
atom_frac       0.68844480      0.87758355      0.75068492 S
atom_frac       0.68775721      0.62927155      0.00030032 S
atom_frac       0.99799864      0.88252408      0.68331986 I
atom_frac       0.00454738      0.61090267      0.94288330 I
atom_frac       0.75648567      0.61665156      0.68825975 I
atom_frac       0.74389379      0.88880104      0.92906184 I
# 
# What follows is the current estimated Hessian matrix constructed by the BFGS algorithm.
# This is NOT the true Hessian matrix of the system.
# If you do not want this information here, switch it off using the "hessian_to_restart_geometry" keyword.
# 
trust_radius             0.2000000030
hessian_file
