# 
# This is the geometry file that corresponds to the current relaxation step.
# If you do not want this file to be written, set the "write_restart_geometry" flag to .false.
#  aims_uuid : 86544512-6B59-4C19-A0B3-6244E035439F                                
# 
lattice_vector     13.54328764     -0.01559480      0.00193387
lattice_vector     -0.12981878     12.05111234     -0.01800587
lattice_vector      0.07781508      4.07769762     11.48424787
atom_frac       0.18253391      0.18018108      0.36391393 Li
atom_frac       0.68253390      0.18018108      0.36391397 Li
atom_frac       0.03997118      0.18905427      0.85738572 Li
atom_frac       0.53997122      0.18905425      0.85738572 Li
atom_frac       0.04469718      0.85715559      0.15884269 Li
atom_frac       0.54469719      0.85715558      0.15884267 Li
atom_frac       0.25716540      0.82687311      0.69244863 Li
atom_frac       0.75716535      0.82687312      0.69244863 Li
atom_frac       0.17111446      0.48126605      0.52500893 Li
atom_frac       0.67111448      0.48126612      0.52500897 Li
atom_frac       0.10161598      0.37777462      0.06429274 Li
atom_frac       0.60161600      0.37777462      0.06429272 Li
atom_frac       0.43449386      0.99838512      0.49375486 Li
atom_frac       0.93449385      0.99838512      0.49375488 Li
atom_frac       0.29852733      0.99166221      0.98569842 Li
atom_frac       0.79852733      0.99166224      0.98569840 Li
atom_frac       0.39492650      0.32487172      0.50576657 Li
atom_frac       0.89492653      0.32487170      0.50576657 Li
atom_frac       0.07087202      0.48836341      0.31807866 Li
atom_frac       0.57087201      0.48836332      0.31807870 Li
atom_frac       0.31240142      0.50506529      0.18535830 Li
atom_frac       0.81240139      0.50506532      0.18535833 Li
atom_frac       0.32591971      0.98900251      0.29898136 Li
atom_frac       0.82591969      0.98900252      0.29898138 Li
atom_frac       0.34068719      0.32334663      0.00725932 Li
atom_frac       0.84068728      0.32334663      0.00725941 Li
atom_frac       0.15069651      0.83461449      0.46302079 Li
atom_frac       0.65069649      0.83461446      0.46302085 Li
atom_frac       0.42726900      0.48718345      0.69304815 Li
atom_frac       0.92726900      0.48718356      0.69304815 Li
atom_frac       0.15582032      0.51546632      0.82272658 Li
atom_frac       0.65582033      0.51546631      0.82272654 Li
atom_frac       0.41561232      0.68837080      0.46040325 Li
atom_frac       0.91561234      0.68837083      0.46040331 Li
atom_frac       0.40141468      0.78646002      0.97477848 Li
atom_frac       0.90141460      0.78646005      0.97477861 Li
atom_frac       0.12421821      0.98301880      0.81191753 Li
atom_frac       0.62421825      0.98301888      0.81191754 Li
atom_frac       0.39085837      0.99864396      0.77268363 Li
atom_frac       0.89085832      0.99864408      0.77268365 Li
atom_frac       0.17766195      0.70164361      0.96850437 Li
atom_frac       0.67766201      0.70164363      0.96850447 Li
atom_frac       0.00943256      0.74923965      0.72926591 P
atom_frac       0.50943218      0.74923986      0.72926597 P
atom_frac       0.25460617      0.25013567      0.76120513 P
atom_frac       0.75460608      0.25013546      0.76120525 P
atom_frac       0.24861618      0.74281121      0.23690618 P
atom_frac       0.74861623      0.74281128      0.23690605 P
atom_frac       0.47376818      0.24647031      0.25662505 P
atom_frac       0.97376827      0.24647044      0.25662483 P
atom_frac       0.26483495      0.87278771      0.86662135 S
atom_frac       0.76483495      0.87278772      0.86662134 S
atom_frac       0.33750548      0.19776332      0.21378555 S
atom_frac       0.83750547      0.19776329      0.21378576 S
atom_frac       0.08689195      0.17942327      0.18893326 S
atom_frac       0.58689187      0.17942339      0.18893325 S
atom_frac       0.38579154      0.69660893      0.66239021 S
atom_frac       0.88579164      0.69660912      0.66239034 S
atom_frac       0.13040773      0.69304242      0.66102018 S
atom_frac       0.63040743      0.69304258      0.66102040 S
atom_frac       0.47879479      0.42826873      0.18226300 S
atom_frac       0.97879475      0.42826889      0.18226302 S
atom_frac       0.49639486      0.19886179      0.43264113 S
atom_frac       0.99639477      0.19886180      0.43264096 S
atom_frac       0.25569773      0.43273354      0.70386529 S
atom_frac       0.75569777      0.43273335      0.70386537 S
atom_frac       0.24115106      0.68462925      0.41602909 S
atom_frac       0.74115108      0.68462929      0.41602896 S
atom_frac       0.22353860      0.92046070      0.17822883 S
atom_frac       0.72353857      0.92046076      0.17822884 S
atom_frac       0.23582409      0.19002851      0.93822649 S
atom_frac       0.73582411      0.19002856      0.93822662 S
atom_frac       0.01834419      0.93074718      0.67373075 S
atom_frac       0.51834439      0.93074732      0.67373063 S
atom_frac       0.01285896      0.67344863      0.90537703 S
atom_frac       0.51285915      0.67344852      0.90537702 S
atom_frac       0.14066277      0.19109128      0.68710515 S
atom_frac       0.64066267      0.19109138      0.68710502 S
atom_frac       0.13491596      0.66811062      0.17316604 S
atom_frac       0.63491594      0.66811055      0.17316616 S
atom_frac       0.39058097      0.20770803      0.71068308 S
atom_frac       0.89058094      0.20770816      0.71068307 S
atom_frac       0.38278411      0.69761190      0.18732576 S
atom_frac       0.88278419      0.69761182      0.18732590 S
atom_frac       0.23710754      0.38221522      0.38334210 Br
atom_frac       0.73710754      0.38221521      0.38334212 Br
atom_frac       0.00223049      0.37963338      0.88537842 Br
atom_frac       0.50223050      0.37963332      0.88537850 Br
atom_frac       0.48900511      0.88637911      0.35631547 Br
atom_frac       0.98900511      0.88637911      0.35631547 Br
atom_frac       0.49066489      0.97942945      0.96609673 Cl
atom_frac       0.99066490      0.97942945      0.96609673 Cl
atom_frac       0.49510364      0.49959775      0.49603033 Cl
atom_frac       0.99510361      0.49959775      0.49603032 Cl
atom_frac       0.25717559      0.98472913      0.48544443 Cl
atom_frac       0.75717558      0.98472913      0.48544444 Cl
atom_frac       0.24339202      0.49607108     -0.00031946 Cl
atom_frac       0.74339201      0.49607108     -0.00031948 Cl
# 
# What follows is the current estimated Hessian matrix constructed by the BFGS algorithm.
# This is NOT the true Hessian matrix of the system.
# If you do not want this information here, switch it off using the "hessian_to_restart_geometry" keyword.
# 
trust_radius             0.2000000030
hessian_file
