# 
# This is the geometry file that corresponds to the current relaxation step.
# If you do not want this file to be written, set the "write_restart_geometry" flag to .false.
#  aims_uuid : 30695C0D-24BD-4753-AF6D-48DFFA205F5A                                
# 
lattice_vector     19.07804557      0.20022357     -0.32303934
lattice_vector      0.18029496     18.97263495      0.13421211
lattice_vector     -0.32246963      0.15145831     19.15720103
atom_frac       0.08619048      0.09837575      0.00833806 Li
atom_frac       0.14019996      0.06854242      0.22534648 Li
atom_frac       0.09980057      0.23264131      0.17537458 Li
atom_frac       0.07657353      0.94034481      0.06793253 Li
atom_frac       0.95674078      0.07101114      0.06395366 Li
atom_frac       0.24323361      0.10629706      0.13535325 Li
atom_frac       0.18855277      0.40802313      0.27227573 Li
atom_frac       0.14155709      0.28865332      0.46600436 Li
atom_frac       0.11506083      0.49023728      0.42104358 Li
atom_frac       0.08741963      0.27275470      0.33386355 Li
atom_frac       0.01279315      0.41313377      0.39512586 Li
atom_frac       0.24164206      0.36232382      0.41055530 Li
atom_frac       0.35823775      0.09312370      0.26524436 Li
atom_frac       0.31367494      0.14877284      0.48245970 Li
atom_frac       0.35100649      0.25355827      0.40466984 Li
atom_frac       0.41287180      0.02967358      0.40480387 Li
atom_frac       0.25280873      0.10319994      0.34837629 Li
atom_frac       0.47727362      0.16412848      0.33689669 Li
atom_frac       0.41576738      0.42850318      0.01968371 Li
atom_frac       0.40004812      0.35404478      0.24695858 Li
atom_frac       0.35834726      0.48523861      0.17587716 Li
atom_frac       0.40596451      0.25855086      0.14655124 Li
atom_frac       0.27737101      0.33619063      0.09067552 Li
atom_frac       0.50468319      0.35986583      0.15597092 Li
atom_frac       0.25833258      0.00316314      0.00050135 P
atom_frac       0.24684749      0.25536566      0.24498101 P
atom_frac       0.00633183      0.01138111      0.25020472 P
atom_frac       0.99634172      0.25759784      0.99795466 P
atom_frac       0.05835486      0.19895809      0.43315351 S
atom_frac       0.43165775      0.19281826      0.04902872 S
atom_frac       0.19638673      0.08064689      0.45239880 S
atom_frac       0.32692646      0.05484389      0.06678334 S
atom_frac       0.07713571      0.45235351      0.19676783 S
atom_frac       0.43310274      0.45601888      0.30353700 S
atom_frac       0.19049223      0.32082922      0.17888862 S
atom_frac       0.30199553      0.32134432      0.30987792 S
atom_frac       0.12745498      0.37795979      0.37466217 S
atom_frac       0.31284050      0.19356017      0.18919188 S
atom_frac       0.17695628      0.19197118      0.29341737 S
atom_frac       0.44926266      0.07908426      0.18658612 S
atom_frac       0.06333116      0.06878930      0.31941689 S
atom_frac       0.36683841      0.13827275      0.37398351 S
atom_frac       0.31825292      0.45361236      0.43018138 S
atom_frac       0.20067351      0.43564770      0.05457629 S
atom_frac       0.43840617      0.32904032      0.44082018 S
atom_frac       0.06753117      0.30471712      0.06554216 S
atom_frac       0.38750328      0.37761211      0.12857178 S
atom_frac       0.01020453      0.00231939      0.98664294 S
atom_frac       0.12577664      0.12704903      0.12024284 Cl
atom_frac       0.99677911      0.26296572      0.24484138 Cl
atom_frac       0.25493680      0.01999566      0.24440906 Cl
atom_frac       0.25901503      0.26250487      0.99072583 Cl
atom_frac       0.08619048      0.09837575      0.50833806 Li
atom_frac       0.14019996      0.06854242      0.72534648 Li
atom_frac       0.09980057      0.23264132      0.67537458 Li
atom_frac       0.07657354      0.94034481      0.56793253 Li
atom_frac       0.95674078      0.07101114      0.56395366 Li
atom_frac       0.24323360      0.10629707      0.63535325 Li
atom_frac       0.18855277      0.40802314      0.77227573 Li
atom_frac       0.14155709      0.28865333      0.96600436 Li
atom_frac       0.11506083      0.49023728      0.92104359 Li
atom_frac       0.08741964      0.27275470      0.83386355 Li
atom_frac       0.01279315      0.41313377      0.89512586 Li
atom_frac       0.24164206      0.36232381      0.91055530 Li
atom_frac       0.35823775      0.09312370      0.76524436 Li
atom_frac       0.31367495      0.14877283      0.98245970 Li
atom_frac       0.35100649      0.25355827      0.90466984 Li
atom_frac       0.41287179      0.02967358      0.90480387 Li
atom_frac       0.25280873      0.10319994      0.84837630 Li
atom_frac       0.47727362      0.16412848      0.83689669 Li
atom_frac       0.41576738      0.42850318      0.51968371 Li
atom_frac       0.40004812      0.35404478      0.74695858 Li
atom_frac       0.35834726      0.48523861      0.67587715 Li
atom_frac       0.40596451      0.25855086      0.64655124 Li
atom_frac       0.27737101      0.33619063      0.59067551 Li
atom_frac       0.50468319      0.35986583      0.65597092 Li
atom_frac       0.25833258      0.00316314      0.50050135 P
atom_frac       0.24684749      0.25536566      0.74498101 P
atom_frac       0.00633183      0.01138111      0.75020472 P
atom_frac       0.99634173      0.25759784      0.49795466 P
atom_frac       0.05835486      0.19895809      0.93315351 S
atom_frac       0.43165776      0.19281826      0.54902873 S
atom_frac       0.19638673      0.08064689      0.95239881 S
atom_frac       0.32692645      0.05484390      0.56678334 S
atom_frac       0.07713571      0.45235351      0.69676783 S
atom_frac       0.43310274      0.45601888      0.80353700 S
atom_frac       0.19049223      0.32082922      0.67888863 S
atom_frac       0.30199553      0.32134432      0.80987792 S
atom_frac       0.12745498      0.37795980      0.87466217 S
atom_frac       0.31284050      0.19356017      0.68919188 S
atom_frac       0.17695628      0.19197118      0.79341737 S
atom_frac       0.44926266      0.07908426      0.68658612 S
atom_frac       0.06333116      0.06878930      0.81941689 S
atom_frac       0.36683841      0.13827275      0.87398351 S
atom_frac       0.31825292      0.45361235      0.93018138 S
atom_frac       0.20067351      0.43564770      0.55457628 S
atom_frac       0.43840617      0.32904032      0.94082018 S
atom_frac       0.06753117      0.30471712      0.56554216 S
atom_frac       0.38750328      0.37761211      0.62857177 S
atom_frac       0.01020453      0.00231939      0.48664294 S
atom_frac       0.12577663      0.12704904      0.62024284 Cl
atom_frac       0.99677911      0.26296572      0.74484138 Cl
atom_frac       0.25493680      0.01999566      0.74440906 Cl
atom_frac       0.25901503      0.26250487      0.49072584 Cl
atom_frac       0.08619048      0.59837575      0.00833806 Li
atom_frac       0.14019996      0.56854241      0.22534648 Li
atom_frac       0.09980057      0.73264131      0.17537458 Li
atom_frac       0.07657353      0.44034481      0.06793253 Li
atom_frac       0.95674078      0.57101113      0.06395367 Li
atom_frac       0.24323360      0.60629706      0.13535325 Li
atom_frac       0.18855277      0.90802313      0.27227573 Li
atom_frac       0.14155709      0.78865332      0.46600436 Li
atom_frac       0.11506083      0.99023728      0.42104357 Li
atom_frac       0.08741963      0.77275470      0.33386354 Li
atom_frac       0.01279315      0.91313377      0.39512586 Li
atom_frac       0.24164205      0.86232382      0.41055531 Li
atom_frac       0.35823775      0.59312370      0.26524436 Li
atom_frac       0.31367495      0.64877284      0.48245970 Li
atom_frac       0.35100649      0.75355827      0.40466984 Li
atom_frac       0.41287179      0.52967358      0.40480387 Li
atom_frac       0.25280874      0.60319994      0.34837629 Li
atom_frac       0.47727363      0.66412848      0.33689669 Li
atom_frac       0.41576738      0.92850317      0.01968371 Li
atom_frac       0.40004812      0.85404478      0.24695858 Li
atom_frac       0.35834726      0.98523861      0.17587716 Li
atom_frac       0.40596450      0.75855086      0.14655125 Li
atom_frac       0.27737101      0.83619063      0.09067551 Li
atom_frac       0.50468319      0.85986583      0.15597092 Li
atom_frac       0.25833258      0.50316314      0.00050135 P
atom_frac       0.24684748      0.75536566      0.24498101 P
atom_frac       0.00633183      0.51138111      0.25020472 P
atom_frac       0.99634173      0.75759784      0.99795466 P
atom_frac       0.05835486      0.69895809      0.43315351 S
atom_frac       0.43165776      0.69281826      0.04902873 S
atom_frac       0.19638673      0.58064689      0.45239880 S
atom_frac       0.32692646      0.55484389      0.06678334 S
atom_frac       0.07713571      0.95235351      0.19676782 S
atom_frac       0.43310275      0.95601888      0.30353700 S
atom_frac       0.19049223      0.82082922      0.17888863 S
atom_frac       0.30199552      0.82134432      0.30987792 S
atom_frac       0.12745498      0.87795979      0.37466217 S
atom_frac       0.31284050      0.69356016      0.18919188 S
atom_frac       0.17695628      0.69197118      0.29341737 S
atom_frac       0.44926266      0.57908427      0.18658612 S
atom_frac       0.06333116      0.56878930      0.31941689 S
atom_frac       0.36683842      0.63827275      0.37398350 S
atom_frac       0.31825292      0.95361235      0.43018138 S
atom_frac       0.20067352      0.93564771      0.05457630 S
atom_frac       0.43840618      0.82904032      0.44082018 S
atom_frac       0.06753117      0.80471712      0.06554216 S
atom_frac       0.38750327      0.87761211      0.12857178 S
atom_frac       0.01020453      0.50231940      0.98664294 S
atom_frac       0.12577663      0.62704903      0.12024284 Cl
atom_frac       0.99677911      0.76296572      0.24484138 Cl
atom_frac       0.25493680      0.51999566      0.24440906 Cl
atom_frac       0.25901503      0.76250487      0.99072583 Cl
atom_frac       0.08619048      0.59837575      0.50833806 Li
atom_frac       0.14019996      0.56854241      0.72534648 Li
atom_frac       0.09980057      0.73264132      0.67537459 Li
atom_frac       0.07657353      0.44034481      0.56793254 Li
atom_frac       0.95674078      0.57101113      0.56395367 Li
atom_frac       0.24323360      0.60629707      0.63535326 Li
atom_frac       0.18855277      0.90802314      0.77227573 Li
atom_frac       0.14155709      0.78865332      0.96600436 Li
atom_frac       0.11506083      0.99023728      0.92104358 Li
atom_frac       0.08741963      0.77275470      0.83386354 Li
atom_frac       0.01279315      0.91313377      0.89512586 Li
atom_frac       0.24164206      0.86232381      0.91055530 Li
atom_frac       0.35823775      0.59312370      0.76524436 Li
atom_frac       0.31367495      0.64877284      0.98245970 Li
atom_frac       0.35100649      0.75355827      0.90466984 Li
atom_frac       0.41287179      0.52967358      0.90480387 Li
atom_frac       0.25280873      0.60319994      0.84837630 Li
atom_frac       0.47727363      0.66412848      0.83689669 Li
atom_frac       0.41576738      0.92850318      0.51968371 Li
atom_frac       0.40004812      0.85404478      0.74695858 Li
atom_frac       0.35834726      0.98523861      0.67587716 Li
atom_frac       0.40596450      0.75855086      0.64655125 Li
atom_frac       0.27737101      0.83619063      0.59067551 Li
atom_frac       0.50468319      0.85986583      0.65597092 Li
atom_frac       0.25833258      0.50316314      0.50050135 P
atom_frac       0.24684749      0.75536566      0.74498101 P
atom_frac       0.00633183      0.51138111      0.75020473 P
atom_frac       0.99634173      0.75759784      0.49795466 P
atom_frac       0.05835486      0.69895809      0.93315352 S
atom_frac       0.43165776      0.69281826      0.54902873 S
atom_frac       0.19638673      0.58064690      0.95239880 S
atom_frac       0.32692645      0.55484390      0.56678334 S
atom_frac       0.07713571      0.95235351      0.69676783 S
atom_frac       0.43310275      0.95601888      0.80353700 S
atom_frac       0.19049223      0.82082922      0.67888863 S
atom_frac       0.30199553      0.82134432      0.80987792 S
atom_frac       0.12745498      0.87795980      0.87466217 S
atom_frac       0.31284050      0.69356016      0.68919189 S
atom_frac       0.17695628      0.69197118      0.79341737 S
atom_frac       0.44926266      0.57908426      0.68658612 S
atom_frac       0.06333116      0.56878931      0.81941689 S
atom_frac       0.36683842      0.63827275      0.87398351 S
atom_frac       0.31825291      0.95361235      0.93018138 S
atom_frac       0.20067352      0.93564771      0.55457630 S
atom_frac       0.43840618      0.82904032      0.94082017 S
atom_frac       0.06753117      0.80471712      0.56554216 S
atom_frac       0.38750328      0.87761211      0.62857178 S
atom_frac       0.01020453      0.50231940      0.48664294 S
atom_frac       0.12577663      0.62704903      0.62024285 Cl
atom_frac       0.99677911      0.76296573      0.74484138 Cl
atom_frac       0.25493680      0.51999566      0.74440906 Cl
atom_frac       0.25901503      0.76250487      0.49072584 Cl
atom_frac       0.58619048      0.09837574      0.00833805 Li
atom_frac       0.64019996      0.06854243      0.22534649 Li
atom_frac       0.59980057      0.23264132      0.17537458 Li
atom_frac       0.57657353      0.94034480      0.06793253 Li
atom_frac       0.45674078      0.07101114      0.06395366 Li
atom_frac       0.74323360      0.10629706      0.13535325 Li
atom_frac       0.68855277      0.40802313      0.27227573 Li
atom_frac       0.64155709      0.28865332      0.46600436 Li
atom_frac       0.61506084      0.49023727      0.42104359 Li
atom_frac       0.58741963      0.27275470      0.33386355 Li
atom_frac       0.51279315      0.41313378      0.39512586 Li
atom_frac       0.74164206      0.36232382      0.41055531 Li
atom_frac       0.85823775      0.09312370      0.26524436 Li
atom_frac       0.81367495      0.14877284      0.48245970 Li
atom_frac       0.85100649      0.25355827      0.40466984 Li
atom_frac       0.91287179      0.02967358      0.40480387 Li
atom_frac       0.75280873      0.10319994      0.34837629 Li
atom_frac       0.97727362      0.16412848      0.33689669 Li
atom_frac       0.91576738      0.42850317      0.01968371 Li
atom_frac       0.90004811      0.35404479      0.24695858 Li
atom_frac       0.85834727      0.48523861      0.17587716 Li
atom_frac       0.90596450      0.25855086      0.14655124 Li
atom_frac       0.77737101      0.33619063      0.09067551 Li
atom_frac       0.00468319      0.35986583      0.15597091 Li
atom_frac       0.75833258      0.00316315      0.00050135 P
atom_frac       0.74684748      0.25536566      0.24498101 P
atom_frac       0.50633183      0.01138110      0.25020472 P
atom_frac       0.49634172      0.25759784      0.99795466 P
atom_frac       0.55835486      0.19895809      0.43315352 S
atom_frac       0.93165776      0.19281826      0.04902872 S
atom_frac       0.69638673      0.08064689      0.45239880 S
atom_frac       0.82692646      0.05484389      0.06678334 S
atom_frac       0.57713571      0.45235351      0.19676783 S
atom_frac       0.93310275      0.45601888      0.30353700 S
atom_frac       0.69049223      0.32082923      0.17888862 S
atom_frac       0.80199553      0.32134432      0.30987792 S
atom_frac       0.62745498      0.37795979      0.37466217 S
atom_frac       0.81284050      0.19356017      0.18919187 S
atom_frac       0.67695628      0.19197118      0.29341737 S
atom_frac       0.94926266      0.07908427      0.18658613 S
atom_frac       0.56333115      0.06878929      0.31941689 S
atom_frac       0.86683841      0.13827275      0.37398350 S
atom_frac       0.81825292      0.45361236      0.43018138 S
atom_frac       0.70067351      0.43564771      0.05457629 S
atom_frac       0.93840617      0.32904032      0.44082019 S
atom_frac       0.56753116      0.30471712      0.06554216 S
atom_frac       0.88750328      0.37761211      0.12857178 S
atom_frac       0.51020453      0.00231939      0.98664294 S
atom_frac       0.62577663      0.12704903      0.12024284 Cl
atom_frac       0.49677912      0.26296572      0.24484138 Cl
atom_frac       0.75493679      0.01999566      0.24440906 Cl
atom_frac       0.75901503      0.26250487      0.99072583 Cl
atom_frac       0.58619048      0.09837574      0.50833806 Li
atom_frac       0.64019996      0.06854242      0.72534649 Li
atom_frac       0.59980057      0.23264132      0.67537458 Li
atom_frac       0.57657353      0.94034480      0.56793253 Li
atom_frac       0.45674078      0.07101114      0.56395365 Li
atom_frac       0.74323360      0.10629707      0.63535325 Li
atom_frac       0.68855277      0.40802314      0.77227573 Li
atom_frac       0.64155709      0.28865332      0.96600436 Li
atom_frac       0.61506084      0.49023728      0.92104359 Li
atom_frac       0.58741963      0.27275470      0.83386355 Li
atom_frac       0.51279315      0.41313377      0.89512586 Li
atom_frac       0.74164206      0.36232381      0.91055530 Li
atom_frac       0.85823775      0.09312370      0.76524435 Li
atom_frac       0.81367496      0.14877284      0.98245970 Li
atom_frac       0.85100649      0.25355828      0.90466984 Li
atom_frac       0.91287179      0.02967358      0.90480387 Li
atom_frac       0.75280872      0.10319994      0.84837630 Li
atom_frac       0.97727362      0.16412848      0.83689669 Li
atom_frac       0.91576738      0.42850318      0.51968371 Li
atom_frac       0.90004811      0.35404479      0.74695858 Li
atom_frac       0.85834727      0.48523861      0.67587716 Li
atom_frac       0.90596450      0.25855086      0.64655124 Li
atom_frac       0.77737101      0.33619063      0.59067551 Li
atom_frac       0.00468319      0.35986583      0.65597092 Li
atom_frac       0.75833258      0.00316314      0.50050135 P
atom_frac       0.74684749      0.25536566      0.74498101 P
atom_frac       0.50633183      0.01138110      0.75020472 P
atom_frac       0.49634172      0.25759784      0.49795466 P
atom_frac       0.55835486      0.19895809      0.93315352 S
atom_frac       0.93165777      0.19281826      0.54902872 S
atom_frac       0.69638674      0.08064690      0.95239881 S
atom_frac       0.82692645      0.05484390      0.56678334 S
atom_frac       0.57713571      0.45235351      0.69676783 S
atom_frac       0.93310275      0.45601888      0.80353700 S
atom_frac       0.69049223      0.32082923      0.67888863 S
atom_frac       0.80199553      0.32134432      0.80987792 S
atom_frac       0.62745498      0.37795979      0.87466218 S
atom_frac       0.81284050      0.19356017      0.68919188 S
atom_frac       0.67695628      0.19197119      0.79341737 S
atom_frac       0.94926265      0.07908427      0.68658613 S
atom_frac       0.56333115      0.06878929      0.81941689 S
atom_frac       0.86683841      0.13827275      0.87398350 S
atom_frac       0.81825292      0.45361236      0.93018138 S
atom_frac       0.70067351      0.43564770      0.55457628 S
atom_frac       0.93840617      0.32904032      0.94082019 S
atom_frac       0.56753116      0.30471712      0.56554216 S
atom_frac       0.88750328      0.37761211      0.62857178 S
atom_frac       0.51020453      0.00231939      0.48664294 S
atom_frac       0.62577663      0.12704904      0.62024285 Cl
atom_frac       0.49677911      0.26296572      0.74484138 Cl
atom_frac       0.75493679      0.01999566      0.74440906 Cl
atom_frac       0.75901503      0.26250487      0.49072584 Cl
atom_frac       0.58619048      0.59837574      0.00833805 Li
atom_frac       0.64019995      0.56854242      0.22534648 Li
atom_frac       0.59980057      0.73264132      0.17537458 Li
atom_frac       0.57657353      0.44034480      0.06793253 Li
atom_frac       0.45674079      0.57101114      0.06395366 Li
atom_frac       0.74323360      0.60629706      0.13535325 Li
atom_frac       0.68855277      0.90802313      0.27227573 Li
atom_frac       0.64155709      0.78865332      0.46600436 Li
atom_frac       0.61506084      0.99023728      0.42104358 Li
atom_frac       0.58741963      0.77275470      0.33386355 Li
atom_frac       0.51279316      0.91313378      0.39512586 Li
atom_frac       0.74164205      0.86232382      0.41055531 Li
atom_frac       0.85823775      0.59312369      0.26524436 Li
atom_frac       0.81367495      0.64877285      0.48245970 Li
atom_frac       0.85100649      0.75355828      0.40466984 Li
atom_frac       0.91287179      0.52967359      0.40480387 Li
atom_frac       0.75280873      0.60319994      0.34837629 Li
atom_frac       0.97727363      0.66412848      0.33689669 Li
atom_frac       0.91576738      0.92850317      0.01968371 Li
atom_frac       0.90004811      0.85404478      0.24695858 Li
atom_frac       0.85834726      0.98523861      0.17587717 Li
atom_frac       0.90596450      0.75855086      0.14655124 Li
atom_frac       0.77737101      0.83619063      0.09067551 Li
atom_frac       0.00468319      0.85986583      0.15597092 Li
atom_frac       0.75833258      0.50316314      0.00050135 P
atom_frac       0.74684748      0.75536566      0.24498101 P
atom_frac       0.50633182      0.51138110      0.25020472 P
atom_frac       0.49634172      0.75759784      0.99795466 P
atom_frac       0.55835486      0.69895809      0.43315352 S
atom_frac       0.93165777      0.69281826      0.04902873 S
atom_frac       0.69638673      0.58064690      0.45239880 S
atom_frac       0.82692646      0.55484389      0.06678334 S
atom_frac       0.57713571      0.95235352      0.19676782 S
atom_frac       0.93310276      0.95601888      0.30353700 S
atom_frac       0.69049223      0.82082922      0.17888862 S
atom_frac       0.80199552      0.82134432      0.30987793 S
atom_frac       0.62745497      0.87795979      0.37466217 S
atom_frac       0.81284050      0.69356016      0.18919188 S
atom_frac       0.67695628      0.69197118      0.29341737 S
atom_frac       0.94926265      0.57908427      0.18658613 S
atom_frac       0.56333115      0.56878929      0.31941690 S
atom_frac       0.86683841      0.63827275      0.37398350 S
atom_frac       0.81825292      0.95361235      0.43018138 S
atom_frac       0.70067351      0.93564771      0.05457631 S
atom_frac       0.93840618      0.82904032      0.44082019 S
atom_frac       0.56753116      0.80471712      0.06554216 S
atom_frac       0.88750328      0.87761211      0.12857178 S
atom_frac       0.51020453      0.50231939      0.98664294 S
atom_frac       0.62577663      0.62704903      0.12024284 Cl
atom_frac       0.49677911      0.76296571      0.24484138 Cl
atom_frac       0.75493679      0.51999566      0.24440906 Cl
atom_frac       0.75901503      0.76250487      0.99072583 Cl
atom_frac       0.58619048      0.59837574      0.50833806 Li
atom_frac       0.64019995      0.56854241      0.72534649 Li
atom_frac       0.59980057      0.73264132      0.67537458 Li
atom_frac       0.57657353      0.44034481      0.56793254 Li
atom_frac       0.45674078      0.57101114      0.56395366 Li
atom_frac       0.74323360      0.60629707      0.63535326 Li
atom_frac       0.68855277      0.90802314      0.77227573 Li
atom_frac       0.64155709      0.78865332      0.96600436 Li
atom_frac       0.61506084      0.99023728      0.92104358 Li
atom_frac       0.58741963      0.77275470      0.83386355 Li
atom_frac       0.51279316      0.91313378      0.89512586 Li
atom_frac       0.74164206      0.86232381      0.91055531 Li
atom_frac       0.85823774      0.59312369      0.76524436 Li
atom_frac       0.81367496      0.64877284      0.98245970 Li
atom_frac       0.85100650      0.75355828      0.90466984 Li
atom_frac       0.91287179      0.52967359      0.90480387 Li
atom_frac       0.75280873      0.60319994      0.84837630 Li
atom_frac       0.97727363      0.66412848      0.83689669 Li
atom_frac       0.91576739      0.92850318      0.51968371 Li
atom_frac       0.90004811      0.85404478      0.74695858 Li
atom_frac       0.85834726      0.98523861      0.67587716 Li
atom_frac       0.90596450      0.75855086      0.64655124 Li
atom_frac       0.77737101      0.83619063      0.59067551 Li
atom_frac       0.00468319      0.85986583      0.65597092 Li
atom_frac       0.75833258      0.50316314      0.50050135 P
atom_frac       0.74684748      0.75536566      0.74498101 P
atom_frac       0.50633182      0.51138110      0.75020473 P
atom_frac       0.49634172      0.75759784      0.49795466 P
atom_frac       0.55835486      0.69895809      0.93315352 S
atom_frac       0.93165777      0.69281826      0.54902873 S
atom_frac       0.69638674      0.58064690      0.95239881 S
atom_frac       0.82692645      0.55484390      0.56678334 S
atom_frac       0.57713571      0.95235352      0.69676783 S
atom_frac       0.93310276      0.95601888      0.80353700 S
atom_frac       0.69049223      0.82082923      0.67888863 S
atom_frac       0.80199552      0.82134432      0.80987793 S
atom_frac       0.62745498      0.87795980      0.87466218 S
atom_frac       0.81284050      0.69356016      0.68919188 S
atom_frac       0.67695628      0.69197118      0.79341737 S
atom_frac       0.94926265      0.57908427      0.68658613 S
atom_frac       0.56333115      0.56878929      0.81941690 S
atom_frac       0.86683841      0.63827275      0.87398350 S
atom_frac       0.81825291      0.95361235      0.93018138 S
atom_frac       0.70067351      0.93564771      0.55457630 S
atom_frac       0.93840618      0.82904033      0.94082019 S
atom_frac       0.56753116      0.80471712      0.56554216 S
atom_frac       0.88750328      0.87761211      0.62857178 S
atom_frac       0.51020453      0.50231939      0.48664294 S
atom_frac       0.62577663      0.62704903      0.62024285 Cl
atom_frac       0.49677911      0.76296572      0.74484138 Cl
atom_frac       0.75493680      0.51999566      0.74440906 Cl
atom_frac       0.75901503      0.76250487      0.49072584 Cl
# 
# What follows is the current estimated Hessian matrix constructed by the BFGS algorithm.
# This is NOT the true Hessian matrix of the system.
# If you do not want this information here, switch it off using the "hessian_to_restart_geometry" keyword.
# 
trust_radius             0.2000000030
hessian_file
