#=======================================================
# FHI-aims file: ./geometry.in
# Created using the Atomic Simulation Environment (ASE)
# Fri Apr  7 08:02:26 2023
#=======================================================
lattice_vector 19.6833032400000008 -0.2418539200000000 -0.2344348800000000 
lattice_vector -0.2458451400000000 19.6938191600000003 -0.2366725800000000 
lattice_vector -0.2238540800000000 -0.2272913400000000 19.9039937400000007 
atom_frac 0.1102326300000000 0.1074776649999999 0.0125968350000000 Li
atom_frac 0.1598328700000000 0.1028884500000000 0.2361434700000001 Li
atom_frac 0.0863521800000000 0.2375918599999999 0.1568951850000000 Li
atom_frac 0.1193645950000000 0.0123079950000000 0.1159014150000001 Li
atom_frac 0.0091961500000000 0.0966829350000000 0.1040014350000000 Li
atom_frac 0.2339633850000000 0.1607207899999999 0.0953299150000000 Li
atom_frac 0.1073107350000000 0.3599179300000000 0.2624676100000001 Li
atom_frac 0.1031536900000000 0.4098127999999998 0.4860299500000000 Li
atom_frac 0.1609473700000000 0.4835816049999997 0.3449544550000002 Li
atom_frac 0.0967259900000000 0.2589968050000000 0.3537903250000002 Li
atom_frac 0.0123331900000000 0.3692645049999997 0.3661262750000002 Li
atom_frac 0.2376576950000000 0.3361946950000000 0.4072862050000001 Li
atom_frac 0.3570696050000000 0.1097268100000000 0.2625330250000001 Li
atom_frac 0.3534165300000000 0.1598341199999999 0.4861484200000000 Li
atom_frac 0.4109086750000000 0.2334936100000000 0.3448295900000001 Li
atom_frac 0.3467939000000000 0.0090601900000000 0.3539430650000002 Li
atom_frac 0.2624385300000000 0.1196354900000000 0.3665045950000001 Li
atom_frac 0.4878313950000000 0.0861763150000000 0.4070307150000000 Li
atom_frac 0.3601841650000000 0.3574336549999997 0.0125079250000000 Li
atom_frac 0.4096784200000000 0.3529648550000000 0.2361272150000001 Li
atom_frac 0.3363080800000000 0.4876414399999998 0.1569622550000000 Li
atom_frac 0.3693106150000000 0.2624275249999998 0.1158077200000000 Li
atom_frac 0.2591421899999999 0.3467519449999997 0.1039825100000000 Li
atom_frac 0.4837855150000000 0.4109395599999998 0.0951510200000000 Li
atom_frac 0.2548644050000000 0.0023215400000000 0.0028170000000000 P
atom_frac 0.2523991150000000 0.2546981899999998 0.2528863700000000 P
atom_frac 0.0023920900000000 0.0047078700000000 0.2528838900000002 P
atom_frac 0.0048791850000000 0.2523440549999998 0.0028483900000000 P
atom_frac 0.0601468200000000 0.1894529350000000 0.4425441500000003 S
atom_frac 0.4473603349999999 0.1913153600000000 0.0632028800000000 S
atom_frac 0.1925929950000000 0.0584808200000000 0.4422395050000000 S
atom_frac 0.3139920350000000 0.0672300150000000 0.0621645300000000 S
atom_frac 0.1239735300000000 0.1284681199999999 0.1270481950000001 S
atom_frac 0.0587673100000000 0.4426267499999997 0.1922926900000001 S
atom_frac 0.4413071600000000 0.4470298949999996 0.3130240400000000 S
atom_frac 0.1894925950000000 0.3098123400000000 0.1924749850000000 S
atom_frac 0.3171998549999999 0.3138471349999999 0.3123316550000002 S
atom_frac 0.1285947750000000 0.3737204950000000 0.3769253450000002 S
atom_frac 0.3090066550000000 0.1927491500000000 0.1923868000000001 S
atom_frac 0.1913092600000000 0.1969934400000000 0.3130110550000001 S
atom_frac 0.4395022350000000 0.0599143900000000 0.1925492250000001 S
atom_frac 0.0673262800000000 0.0637702400000000 0.3122907500000002 S
atom_frac 0.3786669950000000 0.1237082249999999 0.3770027050000000 S
atom_frac 0.3100064400000000 0.4393892749999995 0.4424468150000001 S
atom_frac 0.1972468850000000 0.4412379750000000 0.0630183450000000 S
atom_frac 0.4425349849999999 0.3083385049999999 0.4422056050000000 S
atom_frac 0.0638841800000000 0.3173953349999998 0.0621664850000000 S
atom_frac 0.3738863150000000 0.3785775849999999 0.1269844600000000 S
atom_frac 0.0248492300000000 0.0070141850000000 0.0162546850000000 Cl
atom_frac 0.0070330100000000 0.2746954100000000 0.2661499150000001 Cl
atom_frac 0.2571460400000000 0.0246856550000000 0.2660509250000000 Cl
atom_frac 0.2749530250000000 0.2569829599999998 0.0162713900000000 Cl
atom_frac 0.1102326300000000 0.1074776649999999 0.5125968350000001 Li
atom_frac 0.1598328700000000 0.1028884500000000 0.7361434700000000 Li
atom_frac 0.0863521800000000 0.2375918599999999 0.6568951850000003 Li
atom_frac 0.1193645950000000 0.0123079950000000 0.6159014150000003 Li
atom_frac 0.0091961500000000 0.0966829350000000 0.6040014350000003 Li
atom_frac 0.2339633850000000 0.1607207899999999 0.5953299150000003 Li
atom_frac 0.1073107350000000 0.3599179299999998 0.7624676100000003 Li
atom_frac 0.1031536900000000 0.4098127999999998 0.9860299500000000 Li
atom_frac 0.1609473700000001 0.4835816050000001 0.8449544550000004 Li
atom_frac 0.0967259900000000 0.2589968049999998 0.8537903250000001 Li
atom_frac 0.0123331900000000 0.3692645050000000 0.8661262750000002 Li
atom_frac 0.2376576950000000 0.3361946949999998 0.9072862050000006 Li
atom_frac 0.3570696050000000 0.1097268099999999 0.7625330250000000 Li
atom_frac 0.3534165300000000 0.1598341199999999 0.9861484200000000 Li
atom_frac 0.4109086750000000 0.2334936099999999 0.8448295900000006 Li
atom_frac 0.3467939000000000 0.0090601900000000 0.8539430650000003 Li
atom_frac 0.2624385299999999 0.1196354899999999 0.8665045950000004 Li
atom_frac 0.4878313950000000 0.0861763150000000 0.9070307150000002 Li
atom_frac 0.3601841650000000 0.3574336549999999 0.5125079250000002 Li
atom_frac 0.4096784200000000 0.3529648550000000 0.7361272150000003 Li
atom_frac 0.3363080800000000 0.4876414399999998 0.6569622550000002 Li
atom_frac 0.3693106150000000 0.2624275249999998 0.6158077200000001 Li
atom_frac 0.2591421899999999 0.3467519450000000 0.6039825100000004 Li
atom_frac 0.4837855150000001 0.4109395599999999 0.5951510200000003 Li
atom_frac 0.2548644050000000 0.0023215400000000 0.5028170000000000 P
atom_frac 0.2523991150000000 0.2546981899999998 0.7528863700000002 P
atom_frac 0.0023920900000000 0.0047078700000000 0.7528838900000003 P
atom_frac 0.0048791850000000 0.2523440549999999 0.5028483900000000 P
atom_frac 0.0601468200000000 0.1894529350000000 0.9425441500000006 S
atom_frac 0.4473603349999999 0.1913153599999999 0.5632028800000001 S
atom_frac 0.1925929950000000 0.0584808200000000 0.9422395050000000 S
atom_frac 0.3139920350000000 0.0672300150000000 0.5621645300000002 S
atom_frac 0.1239735300000000 0.1284681200000000 0.6270481950000001 S
atom_frac 0.0587673100000000 0.4426267499999998 0.6922926900000003 S
atom_frac 0.4413071600000000 0.4470298949999997 0.8130240399999999 S
atom_frac 0.1894925950000000 0.3098123399999998 0.6924749850000003 S
atom_frac 0.3171998549999999 0.3138471349999999 0.8123316550000000 S
atom_frac 0.1285947750000000 0.3737204949999998 0.8769253450000002 S
atom_frac 0.3090066550000000 0.1927491499999999 0.6923868000000003 S
atom_frac 0.1913092600000000 0.1969934400000000 0.8130110550000004 S
atom_frac 0.4395022350000000 0.0599143900000000 0.6925492250000000 S
atom_frac 0.0673262800000000 0.0637702400000000 0.8122907500000006 S
atom_frac 0.3786669950000000 0.1237082250000000 0.8770027050000005 S
atom_frac 0.3100064400000000 0.4393892749999998 0.9424468150000005 S
atom_frac 0.1972468850000000 0.4412379750000000 0.5630183450000001 S
atom_frac 0.4425349850000000 0.3083385049999999 0.9422056049999999 S
atom_frac 0.0638841800000000 0.3173953349999997 0.5621664850000003 S
atom_frac 0.3738863150000000 0.3785775849999999 0.6269844600000003 S
atom_frac 0.0248492300000000 0.0070141850000000 0.5162546850000000 Cl
atom_frac 0.0070330100000000 0.2746954100000000 0.7661499150000004 Cl
atom_frac 0.2571460400000000 0.0246856550000000 0.7660509250000000 Cl
atom_frac 0.2749530250000000 0.2569829599999998 0.5162713900000003 Cl
atom_frac 0.1102326300000000 0.6074776650000000 0.0125968350000000 Li
atom_frac 0.1598328699999999 0.6028884499999997 0.2361434700000000 Li
atom_frac 0.0863521800000000 0.7375918599999995 0.1568951850000000 Li
atom_frac 0.1193645950000000 0.5123079949999997 0.1159014150000000 Li
atom_frac 0.0091961500000000 0.5966829349999997 0.1040014350000000 Li
atom_frac 0.2339633850000000 0.6607207899999999 0.0953299150000000 Li
atom_frac 0.1073107350000000 0.8599179299999995 0.2624676100000000 Li
atom_frac 0.1031536900000000 0.9098127999999994 0.4860299500000001 Li
atom_frac 0.1609473700000000 0.9835816049999994 0.3449544550000002 Li
atom_frac 0.0967259900000000 0.7589968049999998 0.3537903250000000 Li
atom_frac 0.0123331900000000 0.8692645050000000 0.3661262750000000 Li
atom_frac 0.2376576949999999 0.8361946949999998 0.4072862050000002 Li
atom_frac 0.3570696050000000 0.6097268099999997 0.2625330250000001 Li
atom_frac 0.3534165300000000 0.6598341199999999 0.4861484200000000 Li
atom_frac 0.4109086750000000 0.7334936099999997 0.3448295900000001 Li
atom_frac 0.3467939000000000 0.5090601900000000 0.3539430650000002 Li
atom_frac 0.2624385300000000 0.6196354899999997 0.3665045950000001 Li
atom_frac 0.4878313950000000 0.5861763149999996 0.4070307150000000 Li
atom_frac 0.3601841650000000 0.8574336549999996 0.0125079250000000 Li
atom_frac 0.4096784200000000 0.8529648550000001 0.2361272150000000 Li
atom_frac 0.3363080800000000 0.9876414399999995 0.1569622550000000 Li
atom_frac 0.3693106149999999 0.7624275249999996 0.1158077200000000 Li
atom_frac 0.2591421899999999 0.8467519449999995 0.1039825100000000 Li
atom_frac 0.4837855150000000 0.9109395599999999 0.0951510200000000 Li
atom_frac 0.2548644050000000 0.5023215400000001 0.0028170000000000 P
atom_frac 0.2523991150000000 0.7546981899999997 0.2528863700000000 P
atom_frac 0.0023920900000000 0.5047078699999999 0.2528838900000000 P
atom_frac 0.0048791850000000 0.7523440549999999 0.0028483900000000 P
atom_frac 0.0601468200000000 0.6894529349999996 0.4425441500000000 S
atom_frac 0.4473603349999999 0.6913153599999999 0.0632028800000000 S
atom_frac 0.1925929950000000 0.5584808200000000 0.4422395050000001 S
atom_frac 0.3139920350000000 0.5672300150000000 0.0621645300000000 S
atom_frac 0.1239735300000000 0.6284681199999997 0.1270481950000001 S
atom_frac 0.0587673100000000 0.9426267499999993 0.1922926900000001 S
atom_frac 0.4413071600000000 0.9470298949999993 0.3130240400000001 S
atom_frac 0.1894925950000000 0.8098123399999998 0.1924749850000001 S
atom_frac 0.3171998549999999 0.8138471349999999 0.3123316550000000 S
atom_frac 0.1285947750000000 0.8737204949999994 0.3769253450000000 S
atom_frac 0.3090066550000000 0.6927491500000000 0.1923868000000000 S
atom_frac 0.1913092600000000 0.6969934399999995 0.3130110550000000 S
atom_frac 0.4395022350000000 0.5599143899999999 0.1925492250000000 S
atom_frac 0.0673262800000000 0.5637702399999996 0.3122907500000001 S
atom_frac 0.3786669950000000 0.6237082249999999 0.3770027050000000 S
atom_frac 0.3100064400000000 0.9393892749999995 0.4424468150000001 S
atom_frac 0.1972468850000000 0.9412379750000002 0.0630183450000000 S
atom_frac 0.4425349849999999 0.8083385049999996 0.4422056050000000 S
atom_frac 0.0638841800000000 0.8173953349999999 0.0621664850000000 S
atom_frac 0.3738863150000000 0.8785775849999994 0.1269844600000000 S
atom_frac 0.0248492300000000 0.5070141849999996 0.0162546850000000 Cl
atom_frac 0.0070330100000000 0.7746954099999995 0.2661499150000001 Cl
atom_frac 0.2571460400000000 0.5246856549999996 0.2660509250000001 Cl
atom_frac 0.2749530250000000 0.7569829600000000 0.0162713900000000 Cl
atom_frac 0.1102326300000000 0.6074776649999997 0.5125968350000001 Li
atom_frac 0.1598328699999999 0.6028884499999997 0.7361434700000002 Li
atom_frac 0.0863521800000000 0.7375918599999997 0.6568951850000001 Li
atom_frac 0.1193645950000000 0.5123079949999997 0.6159014150000002 Li
atom_frac 0.0091961500000000 0.5966829349999997 0.6040014350000003 Li
atom_frac 0.2339633850000000 0.6607207899999995 0.5953299150000003 Li
atom_frac 0.1073107350000000 0.8599179299999998 0.7624676100000003 Li
atom_frac 0.1031536900000000 0.9098127999999994 0.9860299500000004 Li
atom_frac 0.1609473700000000 0.9835816049999994 0.8449544549999999 Li
atom_frac 0.0967259900000000 0.7589968049999998 0.8537903250000002 Li
atom_frac 0.0123331900000000 0.8692645049999994 0.8661262750000005 Li
atom_frac 0.2376576949999999 0.8361946949999998 0.9072862050000000 Li
atom_frac 0.3570696050000000 0.6097268100000000 0.7625330250000003 Li
atom_frac 0.3534165300000000 0.6598341199999999 0.9861484200000006 Li
atom_frac 0.4109086749999999 0.7334936099999997 0.8448295900000000 Li
atom_frac 0.3467939000000000 0.5090601899999997 0.8539430650000002 Li
atom_frac 0.2624385299999999 0.6196354899999997 0.8665045950000001 Li
atom_frac 0.4878313950000000 0.5861763149999996 0.9070307150000003 Li
atom_frac 0.3601841650000000 0.8574336549999996 0.5125079250000002 Li
atom_frac 0.4096784200000000 0.8529648549999995 0.7361272150000003 Li
atom_frac 0.3363080800000000 0.9876414399999993 0.6569622550000002 Li
atom_frac 0.3693106149999999 0.7624275249999996 0.6158077200000003 Li
atom_frac 0.2591421899999999 0.8467519449999995 0.6039825100000001 Li
atom_frac 0.4837855150000001 0.9109395599999999 0.5951510200000003 Li
atom_frac 0.2548644050000000 0.5023215400000000 0.5028170000000000 P
atom_frac 0.2523991150000000 0.7546981899999995 0.7528863700000002 P
atom_frac 0.0023920900000000 0.5047078699999995 0.7528838900000003 P
atom_frac 0.0048791850000000 0.7523440549999995 0.5028483900000003 P
atom_frac 0.0601468200000000 0.6894529349999996 0.9425441500000000 S
atom_frac 0.4473603349999999 0.6913153599999996 0.5632028800000001 S
atom_frac 0.1925929950000000 0.5584808199999997 0.9422395050000000 S
atom_frac 0.3139920350000000 0.5672300150000000 0.5621645300000003 S
atom_frac 0.1239735300000000 0.6284681199999997 0.6270481950000001 S
atom_frac 0.0587673100000000 0.9426267499999993 0.6922926900000003 S
atom_frac 0.4413071600000000 0.9470298949999993 0.8130240400000003 S
atom_frac 0.1894925950000000 0.8098123400000000 0.6924749850000000 S
atom_frac 0.3171998549999999 0.8138471349999994 0.8123316550000000 S
atom_frac 0.1285947750000000 0.8737204949999996 0.8769253450000005 S
atom_frac 0.3090066550000000 0.6927491499999997 0.6923868000000003 S
atom_frac 0.1913092600000000 0.6969934399999995 0.8130110550000004 S
atom_frac 0.4395022350000000 0.5599143899999999 0.6925492250000003 S
atom_frac 0.0673262800000000 0.5637702399999996 0.8122907500000001 S
atom_frac 0.3786669950000000 0.6237082249999999 0.8770027050000002 S
atom_frac 0.3100064400000000 0.9393892749999999 0.9424468150000002 S
atom_frac 0.1972468850000000 0.9412379749999998 0.5630183450000001 S
atom_frac 0.4425349850000000 0.8083385049999996 0.9422056050000005 S
atom_frac 0.0638841800000000 0.8173953349999999 0.5621664850000000 S
atom_frac 0.3738863150000000 0.8785775849999994 0.6269844600000000 S
atom_frac 0.0248492300000000 0.5070141850000000 0.5162546850000000 Cl
atom_frac 0.0070330100000000 0.7746954099999996 0.7661499150000000 Cl
atom_frac 0.2571460400000000 0.5246856549999996 0.7660509250000000 Cl
atom_frac 0.2749530250000000 0.7569829599999996 0.5162713900000000 Cl
atom_frac 0.6102326300000001 0.1074776650000000 0.0125968350000000 Li
atom_frac 0.6598328699999998 0.1028884500000000 0.2361434700000000 Li
atom_frac 0.5863521799999999 0.2375918599999998 0.1568951850000000 Li
atom_frac 0.6193645950000000 0.0123079950000000 0.1159014150000000 Li
atom_frac 0.5091961499999998 0.0966829350000000 0.1040014350000000 Li
atom_frac 0.7339633849999999 0.1607207900000000 0.0953299150000000 Li
atom_frac 0.6073107350000000 0.3599179300000000 0.2624676100000001 Li
atom_frac 0.6031536900000000 0.4098127999999998 0.4860299500000003 Li
atom_frac 0.6609473700000000 0.4835816049999997 0.3449544550000002 Li
atom_frac 0.5967259900000000 0.2589968049999998 0.3537903250000001 Li
atom_frac 0.5123331900000000 0.3692645049999998 0.3661262750000000 Li
atom_frac 0.7376576949999999 0.3361946950000000 0.4072862050000001 Li
atom_frac 0.8570696049999998 0.1097268100000000 0.2625330250000001 Li
atom_frac 0.8534165300000001 0.1598341200000000 0.4861484200000003 Li
atom_frac 0.9109086749999999 0.2334936100000000 0.3448295900000001 Li
atom_frac 0.8467938999999999 0.0090601900000000 0.3539430650000002 Li
atom_frac 0.7624385299999999 0.1196354899999999 0.3665045950000001 Li
atom_frac 0.9878313949999999 0.0861763149999999 0.4070307150000000 Li
atom_frac 0.8601841650000001 0.3574336549999998 0.0125079250000000 Li
atom_frac 0.9096784200000002 0.3529648550000000 0.2361272150000000 Li
atom_frac 0.8363080800000000 0.4876414399999999 0.1569622550000001 Li
atom_frac 0.8693106150000000 0.2624275249999998 0.1158077200000000 Li
atom_frac 0.7591421899999999 0.3467519449999997 0.1039825100000001 Li
atom_frac 0.9837855149999999 0.4109395599999998 0.0951510200000000 Li
atom_frac 0.7548644050000000 0.0023215400000000 0.0028170000000000 P
atom_frac 0.7523991150000000 0.2546981899999998 0.2528863700000000 P
atom_frac 0.5023920900000000 0.0047078700000000 0.2528838900000000 P
atom_frac 0.5048791850000000 0.2523440549999998 0.0028483900000000 P
atom_frac 0.5601468199999999 0.1894529350000000 0.4425441500000003 S
atom_frac 0.9473603350000001 0.1913153600000000 0.0632028800000000 S
atom_frac 0.6925929950000000 0.0584808200000000 0.4422395050000003 S
atom_frac 0.8139920350000001 0.0672300150000000 0.0621645300000000 S
atom_frac 0.6239735300000000 0.1284681199999999 0.1270481950000000 S
atom_frac 0.5587673100000000 0.4426267499999997 0.1922926900000000 S
atom_frac 0.9413071600000001 0.4470298949999996 0.3130240400000000 S
atom_frac 0.6894925950000000 0.3098123400000000 0.1924749850000000 S
atom_frac 0.8171998549999997 0.3138471349999999 0.3123316550000000 S
atom_frac 0.6285947749999999 0.3737204949999998 0.3769253450000002 S
atom_frac 0.8090066550000000 0.1927491500000000 0.1923868000000001 S
atom_frac 0.6913092600000000 0.1969934399999999 0.3130110550000001 S
atom_frac 0.9395022349999999 0.0599143900000000 0.1925492250000000 S
atom_frac 0.5673262800000000 0.0637702400000000 0.3122907500000001 S
atom_frac 0.8786669950000001 0.1237082250000000 0.3770027050000000 S
atom_frac 0.8100064400000000 0.4393892749999996 0.4424468150000001 S
atom_frac 0.6972468849999999 0.4412379749999997 0.0630183450000000 S
atom_frac 0.9425349849999999 0.3083385050000001 0.4422056050000003 S
atom_frac 0.5638841800000000 0.3173953349999998 0.0621664850000000 S
atom_frac 0.8738863149999999 0.3785775849999999 0.1269844600000000 S
atom_frac 0.5248492300000001 0.0070141850000000 0.0162546850000000 Cl
atom_frac 0.5070330099999999 0.2746954100000000 0.2661499150000001 Cl
atom_frac 0.7571460399999999 0.0246856550000000 0.2660509250000000 Cl
atom_frac 0.7749530250000000 0.2569829599999998 0.0162713900000000 Cl
atom_frac 0.6102326300000001 0.1074776649999999 0.5125968350000001 Li
atom_frac 0.6598328699999998 0.1028884500000000 0.7361434700000004 Li
atom_frac 0.5863521799999999 0.2375918600000000 0.6568951850000001 Li
atom_frac 0.6193645950000000 0.0123079950000000 0.6159014150000001 Li
atom_frac 0.5091961499999998 0.0966829350000000 0.6040014350000000 Li
atom_frac 0.7339633849999999 0.1607207899999999 0.5953299150000001 Li
atom_frac 0.6073107350000000 0.3599179299999999 0.7624676100000001 Li
atom_frac 0.6031536900000001 0.4098127999999999 0.9860299500000004 Li
atom_frac 0.6609473700000000 0.4835816050000000 0.8449544550000007 Li
atom_frac 0.5967259900000000 0.2589968050000000 0.8537903250000002 Li
atom_frac 0.5123331900000000 0.3692645050000000 0.8661262750000005 Li
atom_frac 0.7376576950000000 0.3361946949999999 0.9072862050000000 Li
atom_frac 0.8570696049999998 0.1097268099999999 0.7625330250000004 Li
atom_frac 0.8534165300000002 0.1598341199999999 0.9861484200000000 Li
atom_frac 0.9109086749999997 0.2334936100000000 0.8448295900000006 Li
atom_frac 0.8467938999999999 0.0090601900000000 0.8539430650000005 Li
atom_frac 0.7624385300000001 0.1196354899999999 0.8665045950000001 Li
atom_frac 0.9878313949999999 0.0861763149999999 0.9070307150000000 Li
atom_frac 0.8601841649999999 0.3574336549999999 0.5125079250000002 Li
atom_frac 0.9096784200000000 0.3529648550000000 0.7361272150000003 Li
atom_frac 0.8363080800000000 0.4876414399999999 0.6569622550000004 Li
atom_frac 0.8693106150000000 0.2624275250000000 0.6158077200000003 Li
atom_frac 0.7591421899999999 0.3467519449999998 0.6039825100000003 Li
atom_frac 0.9837855150000001 0.4109395600000000 0.5951510200000001 Li
atom_frac 0.7548644050000001 0.0023215400000000 0.5028170000000003 P
atom_frac 0.7523991149999999 0.2546981899999999 0.7528863700000005 P
atom_frac 0.5023920900000000 0.0047078700000000 0.7528838900000001 P
atom_frac 0.5048791850000001 0.2523440549999998 0.5028483900000004 P
atom_frac 0.5601468199999999 0.1894529350000000 0.9425441500000006 S
atom_frac 0.9473603350000001 0.1913153600000000 0.5632028800000001 S
atom_frac 0.6925929950000000 0.0584808200000000 0.9422395050000005 S
atom_frac 0.8139920350000001 0.0672300150000000 0.5621645300000002 S
atom_frac 0.6239735300000000 0.1284681199999999 0.6270481950000001 S
atom_frac 0.5587673100000000 0.4426267499999998 0.6922926900000004 S
atom_frac 0.9413071600000001 0.4470298949999998 0.8130240400000003 S
atom_frac 0.6894925950000000 0.3098123399999999 0.6924749850000000 S
atom_frac 0.8171998549999999 0.3138471349999999 0.8123316550000000 S
atom_frac 0.6285947749999999 0.3737204949999999 0.8769253450000002 S
atom_frac 0.8090066550000000 0.1927491499999999 0.6923868000000003 S
atom_frac 0.6913092600000000 0.1969934399999999 0.8130110550000000 S
atom_frac 0.9395022350000000 0.0599143900000000 0.6925492250000000 S
atom_frac 0.5673262800000000 0.0637702400000000 0.8122907500000001 S
atom_frac 0.8786669949999999 0.1237082250000000 0.8770027050000001 S
atom_frac 0.8100064400000000 0.4393892749999996 0.9424468150000002 S
atom_frac 0.6972468850000001 0.4412379750000000 0.5630183450000001 S
atom_frac 0.9425349850000001 0.3083385050000000 0.9422056050000001 S
atom_frac 0.5638841800000000 0.3173953349999998 0.5621664850000003 S
atom_frac 0.8738863149999999 0.3785775849999998 0.6269844600000003 S
atom_frac 0.5248492300000001 0.0070141850000000 0.5162546850000000 Cl
atom_frac 0.5070330099999999 0.2746954099999999 0.7661499150000003 Cl
atom_frac 0.7571460400000001 0.0246856550000000 0.7660509250000004 Cl
atom_frac 0.7749530250000000 0.2569829599999998 0.5162713900000002 Cl
atom_frac 0.6102326300000001 0.6074776649999997 0.0125968350000000 Li
atom_frac 0.6598328699999998 0.6028884499999997 0.2361434700000000 Li
atom_frac 0.5863521799999999 0.7375918599999997 0.1568951850000000 Li
atom_frac 0.6193645950000000 0.5123079949999997 0.1159014150000000 Li
atom_frac 0.5091961499999998 0.5966829349999997 0.1040014350000000 Li
atom_frac 0.7339633849999999 0.6607207899999999 0.0953299150000000 Li
atom_frac 0.6073107350000000 0.8599179299999997 0.2624676100000000 Li
atom_frac 0.6031536900000000 0.9098127999999999 0.4860299500000003 Li
atom_frac 0.6609473700000000 0.9835816049999990 0.3449544550000002 Li
atom_frac 0.5967259900000000 0.7589968049999998 0.3537903250000000 Li
atom_frac 0.5123331900000000 0.8692645049999996 0.3661262750000000 Li
atom_frac 0.7376576949999999 0.8361946949999995 0.4072862050000001 Li
atom_frac 0.8570696049999998 0.6097268099999997 0.2625330250000000 Li
atom_frac 0.8534165300000001 0.6598341199999999 0.4861484200000003 Li
atom_frac 0.9109086749999999 0.7334936099999997 0.3448295900000001 Li
atom_frac 0.8467938999999999 0.5090601899999997 0.3539430650000000 Li
atom_frac 0.7624385299999999 0.6196354900000000 0.3665045950000002 Li
atom_frac 0.9878313949999999 0.5861763149999997 0.4070307150000000 Li
atom_frac 0.8601841649999999 0.8574336549999994 0.0125079250000000 Li
atom_frac 0.9096784200000002 0.8529648549999995 0.2361272150000000 Li
atom_frac 0.8363080800000000 0.9876414399999998 0.1569622550000000 Li
atom_frac 0.8693106150000000 0.7624275249999997 0.1158077200000000 Li
atom_frac 0.7591421899999999 0.8467519449999995 0.1039825100000000 Li
atom_frac 0.9837855149999999 0.9109395600000000 0.0951510200000000 Li
atom_frac 0.7548644050000000 0.5023215399999997 0.0028170000000000 P
atom_frac 0.7523991150000000 0.7546981899999999 0.2528863700000000 P
atom_frac 0.5023920900000000 0.5047078699999999 0.2528838900000000 P
atom_frac 0.5048791850000000 0.7523440549999999 0.0028483900000000 P
atom_frac 0.5601468199999999 0.6894529349999998 0.4425441500000003 S
atom_frac 0.9473603350000001 0.6913153599999999 0.0632028800000000 S
atom_frac 0.6925929950000000 0.5584808200000000 0.4422395050000003 S
atom_frac 0.8139920350000001 0.5672300150000000 0.0621645300000000 S
atom_frac 0.6239735300000000 0.6284681199999996 0.1270481950000001 S
atom_frac 0.5587673100000000 0.9426267499999995 0.1922926900000001 S
atom_frac 0.9413071600000001 0.9470298949999993 0.3130240400000001 S
atom_frac 0.6894925950000000 0.8098123399999997 0.1924749850000000 S
atom_frac 0.8171998549999999 0.8138471349999999 0.3123316550000000 S
atom_frac 0.6285947749999999 0.8737204949999994 0.3769253450000001 S
atom_frac 0.8090066550000000 0.6927491500000000 0.1923868000000001 S
atom_frac 0.6913092600000000 0.6969934399999996 0.3130110550000000 S
atom_frac 0.9395022349999999 0.5599143899999999 0.1925492250000000 S
atom_frac 0.5673262800000000 0.5637702400000000 0.3122907500000001 S
atom_frac 0.8786669950000001 0.6237082249999997 0.3770027050000000 S
atom_frac 0.8100064400000000 0.9393892749999998 0.4424468150000000 S
atom_frac 0.6972468849999999 0.9412379749999999 0.0630183450000000 S
atom_frac 0.9425349849999998 0.8083385049999996 0.4422056050000003 S
atom_frac 0.5638841800000000 0.8173953349999994 0.0621664850000000 S
atom_frac 0.8738863149999999 0.8785775849999997 0.1269844600000000 S
atom_frac 0.5248492300000001 0.5070141849999998 0.0162546850000000 Cl
atom_frac 0.5070330099999999 0.7746954099999995 0.2661499150000001 Cl
atom_frac 0.7571460399999999 0.5246856549999996 0.2660509250000001 Cl
atom_frac 0.7749530250000000 0.7569829599999999 0.0162713900000000 Cl
atom_frac 0.6102326300000001 0.6074776649999999 0.5125968350000001 Li
atom_frac 0.6598328699999998 0.6028884499999997 0.7361434700000004 Li
atom_frac 0.5863521799999999 0.7375918599999994 0.6568951850000001 Li
atom_frac 0.6193645950000000 0.5123079949999997 0.6159014150000001 Li
atom_frac 0.5091961499999998 0.5966829349999997 0.6040014350000000 Li
atom_frac 0.7339633849999999 0.6607207899999995 0.5953299150000001 Li
atom_frac 0.6073107350000000 0.8599179299999997 0.7624676100000001 Li
atom_frac 0.6031536900000001 0.9098127999999999 0.9860299500000003 Li
atom_frac 0.6609473700000000 0.9835816049999996 0.8449544550000001 Li
atom_frac 0.5967259900000000 0.7589968049999998 0.8537903250000006 Li
atom_frac 0.5123331900000000 0.8692645049999991 0.8661262750000002 Li
atom_frac 0.7376576950000000 0.8361946949999995 0.9072862050000006 Li
atom_frac 0.8570696049999998 0.6097268099999997 0.7625330250000003 Li
atom_frac 0.8534165300000002 0.6598341199999999 0.9861484200000002 Li
atom_frac 0.9109086749999997 0.7334936099999997 0.8448295900000004 Li
atom_frac 0.8467938999999999 0.5090601899999997 0.8539430650000003 Li
atom_frac 0.7624385300000001 0.6196354900000000 0.8665045950000004 Li
atom_frac 0.9878313949999999 0.5861763149999997 0.9070307150000005 Li
atom_frac 0.8601841649999999 0.8574336549999999 0.5125079250000001 Li
atom_frac 0.9096784200000000 0.8529648549999990 0.7361272150000003 Li
atom_frac 0.8363080800000000 0.9876414399999998 0.6569622550000004 Li
atom_frac 0.8693106150000000 0.7624275249999997 0.6158077200000004 Li
atom_frac 0.7591421899999999 0.8467519449999993 0.6039825100000003 Li
atom_frac 0.9837855150000001 0.9109395599999999 0.5951510200000001 Li
atom_frac 0.7548644050000001 0.5023215400000000 0.5028170000000003 P
atom_frac 0.7523991149999999 0.7546981899999995 0.7528863700000002 P
atom_frac 0.5023920900000000 0.5047078699999995 0.7528838900000001 P
atom_frac 0.5048791850000001 0.7523440549999996 0.5028483900000000 P
atom_frac 0.5601468199999999 0.6894529349999998 0.9425441500000002 S
atom_frac 0.9473603350000001 0.6913153599999996 0.5632028800000001 S
atom_frac 0.6925929950000000 0.5584808199999997 0.9422395050000000 S
atom_frac 0.8139920350000001 0.5672300150000000 0.5621645300000002 S
atom_frac 0.6239735300000000 0.6284681200000000 0.6270481950000003 S
atom_frac 0.5587673100000000 0.9426267499999995 0.6922926900000000 S
atom_frac 0.9413071600000001 0.9470298949999996 0.8130240399999999 S
atom_frac 0.6894925950000000 0.8098123399999999 0.6924749850000003 S
atom_frac 0.8171998549999999 0.8138471349999996 0.8123316550000000 S
atom_frac 0.6285947749999999 0.8737204949999994 0.8769253450000001 S
atom_frac 0.8090066550000000 0.6927491499999997 0.6923868000000003 S
atom_frac 0.6913092600000000 0.6969934399999996 0.8130110550000000 S
atom_frac 0.9395022350000000 0.5599143899999999 0.6925492250000000 S
atom_frac 0.5673262800000000 0.5637702400000000 0.8122907500000002 S
atom_frac 0.8786669949999999 0.6237082249999999 0.8770027050000005 S
atom_frac 0.8100064400000000 0.9393892749999998 0.9424468150000003 S
atom_frac 0.6972468850000001 0.9412379749999994 0.5630183450000001 S
atom_frac 0.9425349849999999 0.8083385049999996 0.9422056050000005 S
atom_frac 0.5638841800000000 0.8173953349999999 0.5621664850000003 S
atom_frac 0.8738863149999999 0.8785775849999997 0.6269844600000003 S
atom_frac 0.5248492300000001 0.5070141849999998 0.5162546850000000 Cl
atom_frac 0.5070330099999999 0.7746954099999995 0.7661499150000004 Cl
atom_frac 0.7571460400000001 0.5246856549999996 0.7660509250000000 Cl
atom_frac 0.7749530250000000 0.7569829599999999 0.5162713900000002 Cl
