# 
# This is the geometry file that corresponds to the current relaxation step.
# If you do not want this file to be written, set the "write_restart_geometry" flag to .false.
#  aims_uuid : 39C80AFA-90CC-47CD-AC46-9F041424D03D                                
# 
lattice_vector     19.51312063     -0.07362445     -0.27177084
lattice_vector     -0.07641805     19.45326589     -0.16346744
lattice_vector     -0.27561255     -0.16516777     19.81799260
atom_frac       0.09158156      0.09856596      0.01723180 Li
atom_frac       0.15932933      0.07588063      0.22885116 Li
atom_frac       0.08718598      0.23428162      0.16320427 Li
atom_frac       0.07112441      0.94773432      0.05693786 Li
atom_frac       0.94411984      0.05127385      0.06422915 Li
atom_frac       0.23975376      0.16482436      0.09584198 Li
atom_frac       0.09753956      0.37117253      0.26614049 Li
atom_frac       0.17255665      0.34106560      0.48332057 Li
atom_frac       0.10703212      0.49846263      0.39794636 Li
atom_frac       0.10094455      0.26529818      0.34880803 Li
atom_frac       0.01543555      0.40491790      0.40750496 Li
atom_frac       0.23760646      0.41379748      0.33724805 Li
atom_frac       0.35871597      0.09962512      0.26625783 Li
atom_frac       0.35317330      0.17088070      0.48458486 Li
atom_frac       0.41054634      0.23690047      0.34092103 Li
atom_frac       0.40558255      0.01467318      0.40663983 Li
atom_frac       0.26407599      0.10285397      0.35856568 Li
atom_frac       0.49683759      0.10987356      0.40181453 Li
atom_frac       0.36383937      0.36487652      0.01298735 Li
atom_frac       0.39063047      0.35626152      0.24263771 Li
atom_frac       0.33758518      0.49086384      0.16313532 Li
atom_frac       0.37127959      0.26262239      0.11658000 Li
atom_frac       0.26317809      0.35466440      0.11553701 Li
atom_frac       0.49450038      0.36061695      0.15113537 Li
atom_frac       0.25457547      0.00644560      0.00276355 P
atom_frac       0.25009144      0.25165743      0.25528756 P
atom_frac       0.00326782      0.00898079      0.24736469 P
atom_frac       0.00849988      0.25501098      0.00249876 P
atom_frac       0.07411120      0.19880951      0.44550332 S
atom_frac       0.45562750      0.19145590      0.06440256 S
atom_frac       0.19392132      0.07297228      0.45000536 S
atom_frac       0.31788006      0.06882843      0.06349465 S
atom_frac       0.06955855      0.45590154      0.18630134 S
atom_frac       0.44630175      0.44628815      0.30710169 S
atom_frac       0.18746462      0.31315628      0.19741902 S
atom_frac       0.31056450      0.31155082      0.31972233 S
atom_frac       0.12941500      0.38046484      0.37861571 S
atom_frac       0.31348721      0.19344405      0.19618394 S
atom_frac       0.18770022      0.18663791      0.30549494 S
atom_frac       0.44004061      0.06650962      0.18719243 S
atom_frac       0.06434642      0.07279823      0.30636052 S
atom_frac       0.38018197      0.12873644      0.37830912 S
atom_frac       0.30990364      0.44553352      0.43939316 S
atom_frac       0.19771896      0.44536552      0.06386428 S
atom_frac       0.44398493      0.31000365      0.44083536 S
atom_frac       0.07008008      0.31795106      0.06438042 S
atom_frac       0.37944070      0.38157691      0.12909351 S
atom_frac       0.01123924      0.01084077      0.97746606 S
atom_frac       0.13161378      0.12960228      0.12560662 Cl
atom_frac       0.00712693      0.27882254      0.24883666 Cl
atom_frac       0.26205691      0.01460851      0.26121838 Cl
atom_frac       0.27254211      0.26256184      0.02593888 Cl
atom_frac       0.09158154      0.09856596      0.51723180 Li
atom_frac       0.15932932      0.07588062      0.72885115 Li
atom_frac       0.08718598      0.23428161      0.66320429 Li
atom_frac       0.07112442      0.94773432      0.55693786 Li
atom_frac       0.94411983      0.05127383      0.56422914 Li
atom_frac       0.23975376      0.16482436      0.59584199 Li
atom_frac       0.09753956      0.37117253      0.76614049 Li
atom_frac       0.17255666      0.34106562      0.98332057 Li
atom_frac       0.10703212      0.49846264      0.89794636 Li
atom_frac       0.10094456      0.26529818      0.84880804 Li
atom_frac       0.01543555      0.40491790      0.90750497 Li
atom_frac       0.23760646      0.41379748      0.83724805 Li
atom_frac       0.35871597      0.09962511      0.76625783 Li
atom_frac       0.35317329      0.17088071      0.98458486 Li
atom_frac       0.41054635      0.23690047      0.84092102 Li
atom_frac       0.40558255      0.01467317      0.90663984 Li
atom_frac       0.26407598      0.10285398      0.85856568 Li
atom_frac       0.49683759      0.10987355      0.90181453 Li
atom_frac       0.36383937      0.36487654      0.51298736 Li
atom_frac       0.39063047      0.35626152      0.74263772 Li
atom_frac       0.33758518      0.49086384      0.66313532 Li
atom_frac       0.37127958      0.26262239      0.61657999 Li
atom_frac       0.26317809      0.35466440      0.61553701 Li
atom_frac       0.49450038      0.36061695      0.65113540 Li
atom_frac       0.25457547      0.00644559      0.50276355 P
atom_frac       0.25009144      0.25165743      0.75528756 P
atom_frac       0.00326782      0.00898079      0.74736469 P
atom_frac       0.00849987      0.25501098      0.50249876 P
atom_frac       0.07411120      0.19880950      0.94550332 S
atom_frac       0.45562750      0.19145590      0.56440256 S
atom_frac       0.19392132      0.07297228      0.95000536 S
atom_frac       0.31788005      0.06882843      0.56349466 S
atom_frac       0.06955854      0.45590153      0.68630135 S
atom_frac       0.44630176      0.44628815      0.80710170 S
atom_frac       0.18746462      0.31315627      0.69741902 S
atom_frac       0.31056451      0.31155082      0.81972234 S
atom_frac       0.12941500      0.38046484      0.87861571 S
atom_frac       0.31348721      0.19344405      0.69618395 S
atom_frac       0.18770022      0.18663790      0.80549494 S
atom_frac       0.44004061      0.06650961      0.68719243 S
atom_frac       0.06434642      0.07279824      0.80636052 S
atom_frac       0.38018197      0.12873644      0.87830913 S
atom_frac       0.30990363      0.44553351      0.93939317 S
atom_frac       0.19771896      0.44536550      0.56386427 S
atom_frac       0.44398494      0.31000366      0.94083535 S
atom_frac       0.07008006      0.31795105      0.56438043 S
atom_frac       0.37944070      0.38157691      0.62909352 S
atom_frac       0.01123924      0.01084077      0.47746606 S
atom_frac       0.13161377      0.12960228      0.62560662 Cl
atom_frac       0.00712693      0.27882253      0.74883668 Cl
atom_frac       0.26205691      0.01460850      0.76121838 Cl
atom_frac       0.27254211      0.26256184      0.52593889 Cl
atom_frac       0.09158157      0.59856596      0.01723179 Li
atom_frac       0.15932934      0.57588063      0.22885115 Li
atom_frac       0.08718598      0.73428162      0.16320426 Li
atom_frac       0.07112441      0.44773432      0.05693785 Li
atom_frac       0.94411985      0.55127388      0.06422914 Li
atom_frac       0.23975376      0.66482436      0.09584198 Li
atom_frac       0.09753956      0.87117254      0.26614049 Li
atom_frac       0.17255666      0.84106561      0.48332058 Li
atom_frac       0.10703211      0.99846263      0.39794637 Li
atom_frac       0.10094455      0.76529818      0.34880802 Li
atom_frac       0.01543556      0.90491789      0.40750496 Li
atom_frac       0.23760645      0.91379748      0.33724803 Li
atom_frac       0.35871597      0.59962513      0.26625783 Li
atom_frac       0.35317329      0.67088070      0.48458486 Li
atom_frac       0.41054635      0.73690047      0.34092102 Li
atom_frac       0.40558256      0.51467318      0.40663981 Li
atom_frac       0.26407599      0.60285396      0.35856567 Li
atom_frac       0.49683759      0.60987357      0.40181452 Li
atom_frac       0.36383937      0.86487653      0.01298735 Li
atom_frac       0.39063048      0.85626153      0.24263771 Li
atom_frac       0.33758515      0.99086384      0.16313531 Li
atom_frac       0.37127960      0.76262240      0.11658000 Li
atom_frac       0.26317810      0.85466439      0.11553700 Li
atom_frac       0.49450038      0.86061696      0.15113538 Li
atom_frac       0.25457547      0.50644560      0.00276354 P
atom_frac       0.25009144      0.75165743      0.25528755 P
atom_frac       0.00326782      0.50898078      0.24736468 P
atom_frac       0.00849989      0.75501097      0.00249875 P
atom_frac       0.07411120      0.69880951      0.44550331 S
atom_frac       0.45562750      0.69145591      0.06440256 S
atom_frac       0.19392133      0.57297228      0.45000535 S
atom_frac       0.31788005      0.56882843      0.06349465 S
atom_frac       0.06955855      0.95590155      0.18630135 S
atom_frac       0.44630176      0.94628815      0.30710170 S
atom_frac       0.18746462      0.81315628      0.19741902 S
atom_frac       0.31056451      0.81155083      0.31972232 S
atom_frac       0.12941500      0.88046484      0.37861571 S
atom_frac       0.31348720      0.69344406      0.19618393 S
atom_frac       0.18770023      0.68663791      0.30549494 S
atom_frac       0.44004063      0.56650962      0.18719243 S
atom_frac       0.06434643      0.57279823      0.30636052 S
atom_frac       0.38018197      0.62873645      0.37830912 S
atom_frac       0.30990362      0.94553351      0.43939315 S
atom_frac       0.19771897      0.94536552      0.06386431 S
atom_frac       0.44398493      0.81000365      0.44083536 S
atom_frac       0.07008008      0.81795106      0.06438041 S
atom_frac       0.37944071      0.88157692      0.12909351 S
atom_frac       0.01123924      0.51084079      0.97746605 S
atom_frac       0.13161378      0.62960228      0.12560662 Cl
atom_frac       0.00712693      0.77882253      0.24883666 Cl
atom_frac       0.26205692      0.51460850      0.26121837 Cl
atom_frac       0.27254211      0.76256184      0.02593889 Cl
atom_frac       0.09158155      0.59856596      0.51723179 Li
atom_frac       0.15932934      0.57588064      0.72885116 Li
atom_frac       0.08718599      0.73428162      0.66320427 Li
atom_frac       0.07112440      0.44773432      0.55693786 Li
atom_frac       0.94411984      0.55127386      0.56422914 Li
atom_frac       0.23975375      0.66482436      0.59584198 Li
atom_frac       0.09753956      0.87117253      0.76614049 Li
atom_frac       0.17255668      0.84106564      0.98332058 Li
atom_frac       0.10703210      0.99846263      0.89794637 Li
atom_frac       0.10094456      0.76529819      0.84880804 Li
atom_frac       0.01543556      0.90491789      0.90750496 Li
atom_frac       0.23760646      0.91379747      0.83724804 Li
atom_frac       0.35871597      0.59962513      0.76625783 Li
atom_frac       0.35317329      0.67088070      0.98458486 Li
atom_frac       0.41054635      0.73690047      0.84092101 Li
atom_frac       0.40558255      0.51467318      0.90663982 Li
atom_frac       0.26407599      0.60285397      0.85856567 Li
atom_frac       0.49683760      0.60987354      0.90181452 Li
atom_frac       0.36383938      0.86487655      0.51298735 Li
atom_frac       0.39063047      0.85626153      0.74263772 Li
atom_frac       0.33758516      0.99086384      0.66313531 Li
atom_frac       0.37127959      0.76262240      0.61657998 Li
atom_frac       0.26317811      0.85466438      0.61553700 Li
atom_frac       0.49450038      0.86061695      0.65113540 Li
atom_frac       0.25457548      0.50644560      0.50276354 P
atom_frac       0.25009144      0.75165743      0.75528756 P
atom_frac       0.00326783      0.50898079      0.74736469 P
atom_frac       0.00849987      0.75501098      0.50249875 P
atom_frac       0.07411121      0.69880950      0.94550331 S
atom_frac       0.45562749      0.69145590      0.56440255 S
atom_frac       0.19392133      0.57297228      0.95000535 S
atom_frac       0.31788004      0.56882844      0.56349467 S
atom_frac       0.06955855      0.95590154      0.68630136 S
atom_frac       0.44630176      0.94628815      0.80710171 S
atom_frac       0.18746462      0.81315628      0.69741902 S
atom_frac       0.31056450      0.81155082      0.81972233 S
atom_frac       0.12941501      0.88046485      0.87861571 S
atom_frac       0.31348720      0.69344406      0.69618394 S
atom_frac       0.18770022      0.68663791      0.80549494 S
atom_frac       0.44004062      0.56650962      0.68719243 S
atom_frac       0.06434643      0.57279824      0.80636052 S
atom_frac       0.38018198      0.62873645      0.87830912 S
atom_frac       0.30990361      0.94553350      0.93939317 S
atom_frac       0.19771897      0.94536551      0.56386430 S
atom_frac       0.44398493      0.81000365      0.94083536 S
atom_frac       0.07008007      0.81795105      0.56438042 S
atom_frac       0.37944071      0.88157691      0.62909352 S
atom_frac       0.01123924      0.51084078      0.47746605 S
atom_frac       0.13161377      0.62960228      0.62560661 Cl
atom_frac       0.00712693      0.77882254      0.74883667 Cl
atom_frac       0.26205692      0.51460850      0.76121838 Cl
atom_frac       0.27254211      0.76256184      0.52593889 Cl
atom_frac       0.59158155      0.09856596      0.01723180 Li
atom_frac       0.65932933      0.07588063      0.22885116 Li
atom_frac       0.58718598      0.23428163      0.16320427 Li
atom_frac       0.57112441      0.94773431      0.05693786 Li
atom_frac       0.44411985      0.05127386      0.06422913 Li
atom_frac       0.73975375      0.16482436      0.09584198 Li
atom_frac       0.59753957      0.37117253      0.26614047 Li
atom_frac       0.67255664      0.34106559      0.48332056 Li
atom_frac       0.60703213      0.49846263      0.39794636 Li
atom_frac       0.60094453      0.26529818      0.34880802 Li
atom_frac       0.51543555      0.40491790      0.40750495 Li
atom_frac       0.73760645      0.41379749      0.33724805 Li
atom_frac       0.85871596      0.09962511      0.26625783 Li
atom_frac       0.85317328      0.17088069      0.48458487 Li
atom_frac       0.91054632      0.23690046      0.34092104 Li
atom_frac       0.90558255      0.01467317      0.40663983 Li
atom_frac       0.76407597      0.10285397      0.35856567 Li
atom_frac       0.99683757      0.10987358      0.40181453 Li
atom_frac       0.86383937      0.36487652      0.01298735 Li
atom_frac       0.89063049      0.35626151      0.24263771 Li
atom_frac       0.83758520      0.49086385      0.16313533 Li
atom_frac       0.87127959      0.26262239      0.11658000 Li
atom_frac       0.76317809      0.35466441      0.11553700 Li
atom_frac       0.99450038      0.36061695      0.15113537 Li
atom_frac       0.75457547      0.00644560      0.00276355 P
atom_frac       0.75009144      0.25165743      0.25528756 P
atom_frac       0.50326781      0.00898079      0.24736469 P
atom_frac       0.50849987      0.25501098      0.00249875 P
atom_frac       0.57411120      0.19880951      0.44550331 S
atom_frac       0.95562750      0.19145590      0.06440256 S
atom_frac       0.69392132      0.07297228      0.45000537 S
atom_frac       0.81788005      0.06882843      0.06349467 S
atom_frac       0.56955853      0.45590154      0.18630134 S
atom_frac       0.94630176      0.44628815      0.30710169 S
atom_frac       0.68746462      0.31315628      0.19741902 S
atom_frac       0.81056450      0.31155082      0.31972233 S
atom_frac       0.62941500      0.38046484      0.37861569 S
atom_frac       0.81348720      0.19344405      0.19618394 S
atom_frac       0.68770021      0.18663791      0.30549493 S
atom_frac       0.94004062      0.06650964      0.18719244 S
atom_frac       0.56434642      0.07279825      0.30636051 S
atom_frac       0.88018195      0.12873643      0.37830913 S
atom_frac       0.80990364      0.44553351      0.43939316 S
atom_frac       0.69771895      0.44536551      0.06386426 S
atom_frac       0.94398493      0.31000365      0.44083536 S
atom_frac       0.57008007      0.31795106      0.06438042 S
atom_frac       0.87944070      0.38157691      0.12909351 S
atom_frac       0.51123925      0.01084077      0.97746605 S
atom_frac       0.63161377      0.12960229      0.12560662 Cl
atom_frac       0.50712693      0.27882254      0.24883665 Cl
atom_frac       0.76205691      0.01460850      0.26121837 Cl
atom_frac       0.77254211      0.26256184      0.02593889 Cl
atom_frac       0.59158154      0.09856597      0.51723179 Li
atom_frac       0.65932932      0.07588062      0.72885114 Li
atom_frac       0.58718600      0.23428162      0.66320428 Li
atom_frac       0.57112442      0.94773431      0.55693786 Li
atom_frac       0.44411984      0.05127386      0.56422913 Li
atom_frac       0.73975376      0.16482436      0.59584200 Li
atom_frac       0.59753958      0.37117252      0.76614048 Li
atom_frac       0.67255665      0.34106561      0.98332056 Li
atom_frac       0.60703210      0.49846262      0.89794637 Li
atom_frac       0.60094454      0.26529817      0.84880804 Li
atom_frac       0.51543557      0.40491792      0.90750495 Li
atom_frac       0.73760646      0.41379749      0.83724806 Li
atom_frac       0.85871596      0.09962511      0.76625783 Li
atom_frac       0.85317328      0.17088070      0.98458487 Li
atom_frac       0.91054632      0.23690046      0.84092104 Li
atom_frac       0.90558254      0.01467317      0.90663984 Li
atom_frac       0.76407597      0.10285397      0.85856567 Li
atom_frac       0.99683757      0.10987357      0.90181453 Li
atom_frac       0.86383941      0.36487657      0.51298736 Li
atom_frac       0.89063049      0.35626150      0.74263771 Li
atom_frac       0.83758520      0.49086384      0.66313533 Li
atom_frac       0.87127958      0.26262238      0.61657997 Li
atom_frac       0.76317808      0.35466441      0.61553700 Li
atom_frac       0.99450037      0.36061694      0.65113539 Li
atom_frac       0.75457546      0.00644559      0.50276355 P
atom_frac       0.75009143      0.25165742      0.75528756 P
atom_frac       0.50326782      0.00898079      0.74736470 P
atom_frac       0.50849987      0.25501098      0.50249876 P
atom_frac       0.57411120      0.19880950      0.94550332 S
atom_frac       0.95562749      0.19145589      0.56440255 S
atom_frac       0.69392131      0.07297228      0.95000536 S
atom_frac       0.81788004      0.06882842      0.56349467 S
atom_frac       0.56955854      0.45590154      0.68630136 S
atom_frac       0.94630176      0.44628815      0.80710169 S
atom_frac       0.68746463      0.31315629      0.69741902 S
atom_frac       0.81056450      0.31155082      0.81972232 S
atom_frac       0.62941501      0.38046483      0.87861570 S
atom_frac       0.81348722      0.19344407      0.69618395 S
atom_frac       0.68770019      0.18663790      0.80549493 S
atom_frac       0.94004062      0.06650963      0.68719244 S
atom_frac       0.56434642      0.07279825      0.80636051 S
atom_frac       0.88018195      0.12873643      0.87830913 S
atom_frac       0.80990362      0.44553351      0.93939317 S
atom_frac       0.69771894      0.44536549      0.56386426 S
atom_frac       0.94398493      0.31000364      0.94083536 S
atom_frac       0.57008006      0.31795106      0.56438043 S
atom_frac       0.87944069      0.38157690      0.62909351 S
atom_frac       0.51123925      0.01084078      0.47746605 S
atom_frac       0.63161377      0.12960228      0.62560661 Cl
atom_frac       0.50712693      0.27882254      0.74883666 Cl
atom_frac       0.76205691      0.01460850      0.76121837 Cl
atom_frac       0.77254212      0.26256185      0.52593891 Cl
atom_frac       0.59158157      0.59856594      0.01723177 Li
atom_frac       0.65932934      0.57588066      0.22885116 Li
atom_frac       0.58718598      0.73428163      0.16320425 Li
atom_frac       0.57112440      0.44773432      0.05693784 Li
atom_frac       0.44411984      0.55127389      0.06422913 Li
atom_frac       0.73975375      0.66482436      0.09584197 Li
atom_frac       0.59753957      0.87117253      0.26614048 Li
atom_frac       0.67255665      0.84106560      0.48332057 Li
atom_frac       0.60703212      0.99846263      0.39794636 Li
atom_frac       0.60094454      0.76529818      0.34880802 Li
atom_frac       0.51543556      0.90491789      0.40750495 Li
atom_frac       0.73760645      0.91379748      0.33724803 Li
atom_frac       0.85871596      0.59962512      0.26625782 Li
atom_frac       0.85317328      0.67088068      0.48458487 Li
atom_frac       0.91054632      0.73690047      0.34092103 Li
atom_frac       0.90558255      0.51467318      0.40663981 Li
atom_frac       0.76407598      0.60285397      0.35856566 Li
atom_frac       0.99683758      0.60987358      0.40181452 Li
atom_frac       0.86383938      0.86487653      0.01298735 Li
atom_frac       0.89063049      0.85626152      0.24263771 Li
atom_frac       0.83758518      0.99086384      0.16313531 Li
atom_frac       0.87127961      0.76262240      0.11657999 Li
atom_frac       0.76317810      0.85466439      0.11553699 Li
atom_frac       0.99450039      0.86061695      0.15113538 Li
atom_frac       0.75457546      0.50644560      0.00276354 P
atom_frac       0.75009143      0.75165743      0.25528756 P
atom_frac       0.50326783      0.50898079      0.24736470 P
atom_frac       0.50849988      0.75501097      0.00249874 P
atom_frac       0.57411121      0.69880951      0.44550330 S
atom_frac       0.95562750      0.69145590      0.06440255 S
atom_frac       0.69392133      0.57297228      0.45000535 S
atom_frac       0.81788004      0.56882843      0.06349467 S
atom_frac       0.56955854      0.95590155      0.18630135 S
atom_frac       0.94630176      0.94628815      0.30710170 S
atom_frac       0.68746462      0.81315628      0.19741902 S
atom_frac       0.81056450      0.81155083      0.31972231 S
atom_frac       0.62941500      0.88046484      0.37861570 S
atom_frac       0.81348720      0.69344407      0.19618393 S
atom_frac       0.68770021      0.68663791      0.30549494 S
atom_frac       0.94004063      0.56650965      0.18719244 S
atom_frac       0.56434644      0.57279825      0.30636051 S
atom_frac       0.88018196      0.62873644      0.37830912 S
atom_frac       0.80990361      0.94553350      0.43939315 S
atom_frac       0.69771896      0.94536551      0.06386429 S
atom_frac       0.94398493      0.81000365      0.44083535 S
atom_frac       0.57008007      0.81795106      0.06438041 S
atom_frac       0.87944071      0.88157691      0.12909351 S
atom_frac       0.51123923      0.51084079      0.97746606 S
atom_frac       0.63161376      0.62960228      0.12560660 Cl
atom_frac       0.50712692      0.77882254      0.24883665 Cl
atom_frac       0.76205692      0.51460850      0.26121836 Cl
atom_frac       0.77254211      0.76256184      0.02593889 Cl
atom_frac       0.59158156      0.59856596      0.51723178 Li
atom_frac       0.65932934      0.57588062      0.72885115 Li
atom_frac       0.58718600      0.73428163      0.66320427 Li
atom_frac       0.57112440      0.44773432      0.55693786 Li
atom_frac       0.44411984      0.55127388      0.56422912 Li
atom_frac       0.73975376      0.66482436      0.59584199 Li
atom_frac       0.59753957      0.87117252      0.76614048 Li
atom_frac       0.67255667      0.84106562      0.98332057 Li
atom_frac       0.60703211      0.99846263      0.89794636 Li
atom_frac       0.60094455      0.76529818      0.84880803 Li
atom_frac       0.51543556      0.90491789      0.90750495 Li
atom_frac       0.73760646      0.91379748      0.83724803 Li
atom_frac       0.85871596      0.59962513      0.76625782 Li
atom_frac       0.85317328      0.67088069      0.98458487 Li
atom_frac       0.91054633      0.73690046      0.84092103 Li
atom_frac       0.90558255      0.51467317      0.90663982 Li
atom_frac       0.76407597      0.60285397      0.85856566 Li
atom_frac       0.99683758      0.60987358      0.90181452 Li
atom_frac       0.86383941      0.86487657      0.51298735 Li
atom_frac       0.89063050      0.85626151      0.74263771 Li
atom_frac       0.83758518      0.99086384      0.66313532 Li
atom_frac       0.87127960      0.76262239      0.61657997 Li
atom_frac       0.76317810      0.85466440      0.61553699 Li
atom_frac       0.99450038      0.86061695      0.65113539 Li
atom_frac       0.75457547      0.50644559      0.50276354 P
atom_frac       0.75009142      0.75165742      0.75528755 P
atom_frac       0.50326782      0.50898079      0.74736470 P
atom_frac       0.50849988      0.75501097      0.50249874 P
atom_frac       0.57411121      0.69880949      0.94550330 S
atom_frac       0.95562749      0.69145589      0.56440254 S
atom_frac       0.69392133      0.57297229      0.95000534 S
atom_frac       0.81788004      0.56882842      0.56349468 S
atom_frac       0.56955854      0.95590154      0.68630136 S
atom_frac       0.94630176      0.94628815      0.80710170 S
atom_frac       0.68746463      0.81315630      0.69741902 S
atom_frac       0.81056450      0.81155082      0.81972231 S
atom_frac       0.62941500      0.88046484      0.87861570 S
atom_frac       0.81348721      0.69344408      0.69618394 S
atom_frac       0.68770019      0.68663790      0.80549493 S
atom_frac       0.94004063      0.56650964      0.68719244 S
atom_frac       0.56434643      0.57279826      0.80636050 S
atom_frac       0.88018195      0.62873643      0.87830913 S
atom_frac       0.80990361      0.94553350      0.93939317 S
atom_frac       0.69771896      0.94536550      0.56386428 S
atom_frac       0.94398493      0.81000364      0.94083536 S
atom_frac       0.57008006      0.81795105      0.56438043 S
atom_frac       0.87944071      0.88157690      0.62909350 S
atom_frac       0.51123925      0.51084079      0.47746604 S
atom_frac       0.63161377      0.62960228      0.62560661 Cl
atom_frac       0.50712693      0.77882254      0.74883666 Cl
atom_frac       0.76205692      0.51460850      0.76121837 Cl
atom_frac       0.77254213      0.76256185      0.52593891 Cl
# 
# What follows is the current estimated Hessian matrix constructed by the BFGS algorithm.
# This is NOT the true Hessian matrix of the system.
# If you do not want this information here, switch it off using the "hessian_to_restart_geometry" keyword.
# 
trust_radius             0.2000000030
hessian_file
