# 
# This is the geometry file that corresponds to the current relaxation step.
# If you do not want this file to be written, set the "write_restart_geometry" flag to .false.
#  aims_uuid : 1C61CF40-D505-4705-AD08-9435729806F4                                
# 
lattice_vector     13.54375124     -0.01780551      0.01504316
lattice_vector     -0.11451151     11.99136297     -0.03586420
lattice_vector      0.07274040      3.95920220     11.47242247
atom_frac       0.18744953      0.19283264      0.35109475 Li
atom_frac       0.68744953      0.19283265      0.35109476 Li
atom_frac       0.03436070      0.20536712      0.84539701 Li
atom_frac       0.53436074      0.20536712      0.84539702 Li
atom_frac       0.04060450      0.84470307      0.17974481 Li
atom_frac       0.54060447      0.84470309      0.17974489 Li
atom_frac       0.25257577      0.82318643      0.69931734 Li
atom_frac       0.75257576      0.82318644      0.69931735 Li
atom_frac       0.18186962      0.47203436      0.51902007 Li
atom_frac       0.68186958      0.47203436      0.51902007 Li
atom_frac       0.10263437      0.36519979      0.05099962 Li
atom_frac       0.60263436      0.36519978      0.05099961 Li
atom_frac       0.44817562      0.99975488      0.49055321 Li
atom_frac       0.94817561      0.99975492      0.49055324 Li
atom_frac       0.28883559      0.99158659      0.99272365 Li
atom_frac       0.78883560      0.99158661      0.99272366 Li
atom_frac       0.38560141      0.31876168      0.49941674 Li
atom_frac       0.88560142      0.31876170      0.49941675 Li
atom_frac       0.07886607      0.47039287      0.31432456 Li
atom_frac       0.57886606      0.47039286      0.31432455 Li
atom_frac       0.31339062      0.50029901      0.18827698 Li
atom_frac       0.81339062      0.50029901      0.18827698 Li
atom_frac       0.33714838      0.98626637      0.29641671 Li
atom_frac       0.83714834      0.98626640      0.29641671 Li
atom_frac       0.34957018      0.33025248      0.00201828 Li
atom_frac       0.84957017      0.33025249      0.00201830 Li
atom_frac       0.14835088      0.83391836      0.45410711 Li
atom_frac       0.64835084      0.83391839      0.45410708 Li
atom_frac       0.42655317      0.48804137      0.70236674 Li
atom_frac       0.92655317      0.48804138      0.70236675 Li
atom_frac       0.14748513      0.51856248      0.82116905 Li
atom_frac       0.64748513      0.51856247      0.82116904 Li
atom_frac       0.41630191      0.69900884      0.46620188 Li
atom_frac       0.91630189      0.69900881      0.46620191 Li
atom_frac       0.39982327      0.78711935      0.97620719 Li
atom_frac       0.89982327      0.78711937      0.97620718 Li
atom_frac       0.12432101      0.98854270      0.81190003 Li
atom_frac       0.62432100      0.98854273      0.81190005 Li
atom_frac       0.38255725      1.00087761      0.77164959 Li
atom_frac       0.88255723      1.00087763      0.77164956 Li
atom_frac       0.17569898      0.70010196      0.97364298 Li
atom_frac       0.67569898      0.70010196      0.97364298 Li
atom_frac       0.00735065      0.75144079      0.73092625 P
atom_frac       0.50735065      0.75144080      0.73092621 P
atom_frac       0.25439351      0.25420626      0.76063563 P
atom_frac       0.75439344      0.25420622      0.76063564 P
atom_frac       0.24954957      0.73785469      0.24221153 P
atom_frac       0.74954953      0.73785469      0.24221152 P
atom_frac       0.47548047      0.24555127      0.25012427 P
atom_frac       0.97548046      0.24555131      0.25012426 P
atom_frac       0.26095706      0.87223464      0.87200976 S
atom_frac       0.76095706      0.87223466      0.87200977 S
atom_frac       0.33911807      0.19577731      0.20880726 S
atom_frac       0.83911806      0.19577733      0.20880727 S
atom_frac       0.08693290      0.17223563      0.18549438 S
atom_frac       0.58693291      0.17223561      0.18549437 S
atom_frac       0.38256476      0.69788346      0.66661783 S
atom_frac       0.88256476      0.69788346      0.66661786 S
atom_frac       0.12579209      0.69584181      0.65752899 S
atom_frac       0.62579210      0.69584182      0.65752898 S
atom_frac       0.48131752      0.42635943      0.17057590 S
atom_frac       0.98131753      0.42635946      0.17057589 S
atom_frac       0.50070014      0.20531338      0.42542099 S
atom_frac       1.00070014      0.20531341      0.42542098 S
atom_frac       0.25473571      0.43648274      0.70450732 S
atom_frac       0.75473572      0.43648271      0.70450731 S
atom_frac       0.24448562      0.67885694      0.42109584 S
atom_frac       0.74448560      0.67885694      0.42109583 S
atom_frac       0.22058133      0.91505699      0.18983273 S
atom_frac       0.72058131      0.91505699      0.18983273 S
atom_frac       0.23718708      0.19634384      0.93756547 S
atom_frac       0.73718706      0.19634384      0.93756548 S
atom_frac       0.01533738      0.93291129      0.67948381 S
atom_frac       0.51533739      0.93291131      0.67948380 S
atom_frac       0.01232286      0.67229224      0.90652116 S
atom_frac       0.51232287      0.67229226      0.90652112 S
atom_frac       0.14105215      0.19517546      0.68470137 S
atom_frac       0.64105213      0.19517546      0.68470129 S
atom_frac       0.13592015      0.66125919      0.17971966 S
atom_frac       0.63592012      0.66125918      0.17971965 S
atom_frac       0.38909552      0.21033366      0.70714953 S
atom_frac       0.88909550      0.21033370      0.70714956 S
atom_frac       0.38331241      0.69566404      0.18857588 S
atom_frac       0.88331238      0.69566405      0.18857588 S
atom_frac       0.48967199      0.98775565      0.97827721 Br
atom_frac       0.98967208      0.98775566      0.97827719 Br
atom_frac       0.49570115      0.49932541      0.49377487 Br
atom_frac       0.99570123      0.49932541      0.49377491 Br
atom_frac       0.25826477      0.99317105      0.49169434 Br
atom_frac       0.75826481      0.99317105      0.49169436 Br
atom_frac       0.24025716      0.38223022      0.37730602 Cl
atom_frac       0.74025717      0.38223023      0.37730603 Cl
atom_frac       0.00358666      0.38306922      0.88061162 Cl
atom_frac       0.50358667      0.38306923      0.88061161 Cl
atom_frac       0.48777084      0.88328715      0.36442671 Cl
atom_frac       0.98777083      0.88328714      0.36442672 Cl
atom_frac       0.24098395      0.49384185     -0.00085784 Cl
atom_frac       0.74098395      0.49384185     -0.00085784 Cl
# 
# What follows is the current estimated Hessian matrix constructed by the BFGS algorithm.
# This is NOT the true Hessian matrix of the system.
# If you do not want this information here, switch it off using the "hessian_to_restart_geometry" keyword.
# 
trust_radius             0.0240774140
hessian_file
