# 
# This is the geometry file that corresponds to the current relaxation step.
# If you do not want this file to be written, set the "write_restart_geometry" flag to .false.
#  aims_uuid : 0E4FA00D-F2E9-473D-A216-30EDFB198036                                
# 
lattice_vector     13.54315438     -0.00652031      0.02083922
lattice_vector     -0.22753289     23.98247332     -0.07315553
lattice_vector      0.14612561      7.91585769     22.94345014
atom_frac       0.18751511      0.09643085      0.17553560 Li
atom_frac       0.68751511      0.09643085      0.17553559 Li
atom_frac       0.03447686      0.10268098      0.42282696 Li
atom_frac       0.53447685      0.10268098      0.42282696 Li
atom_frac       0.04054183      0.42231364      0.08985857 Li
atom_frac       0.54054182      0.42231363      0.08985857 Li
atom_frac       0.25258405      0.41167024      0.34960971 Li
atom_frac       0.75258408      0.41167024      0.34960967 Li
atom_frac       0.18185419      0.23614055      0.25943467 Li
atom_frac       0.68185417      0.23614055      0.25943467 Li
atom_frac       0.10307310      0.18222189      0.02542317 Li
atom_frac       0.60307309      0.18222187      0.02542314 Li
atom_frac       0.44825175      0.49993060      0.24520594 Li
atom_frac       0.94825179      0.49993060      0.24520592 Li
atom_frac       0.28854214      0.49585854      0.49635782 Li
atom_frac       0.78854212      0.49585853      0.49635781 Li
atom_frac       0.38550237      0.15933474      0.24975918 Li
atom_frac       0.88550236      0.15933476      0.24975919 Li
atom_frac       0.07887940      0.23511230      0.15713048 Li
atom_frac       0.57887940      0.23511231      0.15713048 Li
atom_frac       0.31357916      0.25000292      0.09427205 Li
atom_frac       0.81357914      0.25000293      0.09427205 Li
atom_frac       0.33726290      0.49314891      0.14814517 Li
atom_frac       0.83726294      0.49314891      0.14814518 Li
atom_frac       0.34958220      0.16509237      0.00099766 Li
atom_frac       0.84958212      0.16509237      0.00099765 Li
atom_frac       0.14853941      0.41707118      0.22686995 Li
atom_frac       0.64853943      0.41707117      0.22686993 Li
atom_frac       0.42621600      0.24381595      0.35119751 Li
atom_frac       0.92621599      0.24381595      0.35119751 Li
atom_frac       0.14710396      0.25956970      0.41066779 Li
atom_frac       0.64710395      0.25956971      0.41066778 Li
atom_frac       0.41640148      0.34948372      0.23325468 Li
atom_frac       0.91640149      0.34948373      0.23325468 Li
atom_frac       0.39983233      0.39359622      0.48800629 Li
atom_frac       0.89983232      0.39359622      0.48800628 Li
atom_frac       0.12415691      0.49424931      0.40592392 Li
atom_frac       0.62415689      0.49424930      0.40592393 Li
atom_frac       0.38245977      0.50055749      0.38588002 Li
atom_frac       0.88245983      0.50055749      0.38588004 Li
atom_frac       0.17582144      0.35010417      0.48689039 Li
atom_frac       0.67582145      0.35010418      0.48689039 Li
atom_frac       0.00738986      0.37575850      0.36540678 P
atom_frac       0.50738986      0.37575850      0.36540678 P
atom_frac       0.25421530      0.12716890      0.38035199 P
atom_frac       0.75421535      0.12716892      0.38035198 P
atom_frac       0.24962298      0.36890087      0.12109202 P
atom_frac       0.74962298      0.36890087      0.12109202 P
atom_frac       0.47559562      0.12271158      0.12503462 P
atom_frac       0.97559564      0.12271157      0.12503464 P
atom_frac       0.26090863      0.43617542      0.43598694 S
atom_frac       0.76090863      0.43617543      0.43598691 S
atom_frac       0.33922675      0.09790855      0.10436859 S
atom_frac       0.83922676      0.09790856      0.10436859 S
atom_frac       0.08704912      0.08586356      0.09284626 S
atom_frac       0.58704910      0.08586356      0.09284625 S
atom_frac       0.38256255      0.34884768      0.33346625 S
atom_frac       0.88256254      0.34884768      0.33346625 S
atom_frac       0.12587748      0.34806463      0.32859859 S
atom_frac       0.62587749      0.34806465      0.32859859 S
atom_frac       0.48163447      0.21308240      0.08515590 S
atom_frac       0.98163444      0.21308240      0.08515592 S
atom_frac       0.50071019      0.10269519      0.21268619 S
atom_frac       0.00071017      0.10269519      0.21268621 S
atom_frac       0.25428229      0.21829719      0.35231248 S
atom_frac       0.75428227      0.21829721      0.35231248 S
atom_frac       0.24469226      0.33941989      0.21053985 S
atom_frac       0.74469226      0.33941988      0.21053985 S
atom_frac       0.22057864      0.45750182      0.09496502 S
atom_frac       0.72057864      0.45750182      0.09496503 S
atom_frac       0.23690227      0.09826404      0.46883373 S
atom_frac       0.73690225      0.09826404      0.46883371 S
atom_frac       0.01511239      0.46649363      0.33973364 S
atom_frac       0.51511236      0.46649362      0.33973364 S
atom_frac       0.01257203      0.33620233      0.45321075 S
atom_frac       0.51257203      0.33620232      0.45321076 S
atom_frac       0.14103580      0.09755665      0.34240780 S
atom_frac       0.64103583      0.09755664      0.34240782 S
atom_frac       0.13596451      0.33061333      0.08992205 S
atom_frac       0.63596451      0.33061334      0.08992204 S
atom_frac       0.38908481      0.10528831      0.35367407 S
atom_frac       0.88908482      0.10528829      0.35367407 S
atom_frac       0.38335905      0.34779477      0.09417312 S
atom_frac       0.88335905      0.34779479      0.09417311 S
atom_frac       0.48950583      0.49389488      0.48916353 Br
atom_frac       0.98950576      0.49389488      0.48916354 Br
atom_frac       0.49563804      0.24962634      0.24687184 Br
atom_frac       0.99563803      0.24962634      0.24687182 Br
atom_frac       0.25833243      0.49662078      0.24580577 Br
atom_frac       0.75833243      0.49662075      0.24580579 Br
atom_frac       0.24029689      0.19111980      0.18863678 Cl
atom_frac       0.74029687      0.19111980      0.18863678 Cl
atom_frac       0.00349880      0.19156416      0.44031808 Cl
atom_frac       0.50349880      0.19156416      0.44031807 Cl
atom_frac       0.48778463      0.44157609      0.18223479 Cl
atom_frac       0.98778464      0.44157609      0.18223480 Cl
atom_frac       0.24098738      0.24688548      0.99959830 Cl
atom_frac       0.74098735      0.24688548      0.99959830 Cl
atom_frac       0.18751511      0.09643084      0.67553560 Li
atom_frac       0.68751512      0.09643085      0.67553560 Li
atom_frac       0.03447675      0.10268096      0.92282695 Li
atom_frac       0.53447684      0.10268097      0.92282697 Li
atom_frac       0.04054182      0.42231364      0.58985856 Li
atom_frac       0.54054181      0.42231365      0.58985855 Li
atom_frac       0.25258407      0.41167022      0.84960973 Li
atom_frac       0.75258403      0.41167023      0.84960974 Li
atom_frac       0.18185422      0.23614055      0.75943467 Li
atom_frac       0.68185419      0.23614056      0.75943466 Li
atom_frac       0.10307310      0.18222188      0.52542314 Li
atom_frac       0.60307310      0.18222188      0.52542314 Li
atom_frac       0.44825176      0.49993060      0.74520594 Li
atom_frac       0.94825179      0.49993060      0.74520591 Li
atom_frac       0.28854213      0.49585853      0.99635781 Li
atom_frac       0.78854212      0.49585854      0.99635782 Li
atom_frac       0.38550237      0.15933473      0.74975918 Li
atom_frac       0.88550238      0.15933475      0.74975920 Li
atom_frac       0.07887938      0.23511229      0.65713050 Li
atom_frac       0.57887939      0.23511231      0.65713049 Li
atom_frac       0.31357915      0.25000292      0.59427205 Li
atom_frac       0.81357915      0.25000292      0.59427205 Li
atom_frac       0.33726289      0.49314890      0.64814520 Li
atom_frac       0.83726292      0.49314890      0.64814519 Li
atom_frac       0.34958218      0.16509236      0.50099765 Li
atom_frac       0.84958217      0.16509236      0.50099764 Li
atom_frac       0.14853942      0.41707118      0.72686995 Li
atom_frac       0.64853945      0.41707118      0.72686995 Li
atom_frac       0.42621604      0.24381597      0.85119752 Li
atom_frac       0.92621596      0.24381596      0.85119753 Li
atom_frac       0.14710400      0.25956968      0.91066778 Li
atom_frac       0.64710395      0.25956971      0.91066778 Li
atom_frac       0.41640151      0.34948371      0.73325469 Li
atom_frac       0.91640149      0.34948372      0.73325468 Li
atom_frac       0.39983236      0.39359621      0.98800631 Li
atom_frac       0.89983233      0.39359623      0.98800630 Li
atom_frac       0.12415698      0.49424923      0.90592390 Li
atom_frac       0.62415689      0.49424929      0.90592394 Li
atom_frac       0.38245978      0.50055748      0.88588003 Li
atom_frac       0.88245972      0.50055746      0.88587999 Li
atom_frac       0.17582146      0.35010416      0.98689039 Li
atom_frac       0.67582144      0.35010417      0.98689038 Li
atom_frac       0.00738983      0.37575849      0.86540677 P
atom_frac       0.50738987      0.37575850      0.86540679 P
atom_frac       0.25421526      0.12716887      0.88035204 P
atom_frac       0.75421534      0.12716892      0.88035200 P
atom_frac       0.24962297      0.36890087      0.62109202 P
atom_frac       0.74962298      0.36890088      0.62109202 P
atom_frac       0.47559562      0.12271157      0.62503462 P
atom_frac       0.97559562      0.12271157      0.62503463 P
atom_frac       0.26090869      0.43617539      0.93598695 S
atom_frac       0.76090862      0.43617542      0.93598695 S
atom_frac       0.33922675      0.09790854      0.60436859 S
atom_frac       0.83922675      0.09790855      0.60436858 S
atom_frac       0.08704909      0.08586356      0.59284624 S
atom_frac       0.58704910      0.08586357      0.59284624 S
atom_frac       0.38256256      0.34884769      0.83346625 S
atom_frac       0.88256251      0.34884767      0.83346626 S
atom_frac       0.12587747      0.34806463      0.82859860 S
atom_frac       0.62587748      0.34806463      0.82859858 S
atom_frac       0.48163446      0.21308240      0.58515591 S
atom_frac       0.98163445      0.21308240      0.58515591 S
atom_frac       0.50071020      0.10269518      0.71268618 S
atom_frac       0.00071020      0.10269519      0.71268619 S
atom_frac       0.25428237      0.21829717      0.85231247 S
atom_frac       0.75428225      0.21829721      0.85231247 S
atom_frac       0.24469228      0.33941989      0.71053985 S
atom_frac       0.74469227      0.33941989      0.71053985 S
atom_frac       0.22057862      0.45750182      0.59496503 S
atom_frac       0.72057862      0.45750182      0.59496502 S
atom_frac       0.23690238      0.09826405      0.96883378 S
atom_frac       0.73690217      0.09826404      0.96883373 S
atom_frac       0.01511238      0.46649362      0.83973364 S
atom_frac       0.51511238      0.46649362      0.83973365 S
atom_frac       0.01257204      0.33620234      0.95321074 S
atom_frac       0.51257204      0.33620232      0.95321076 S
atom_frac       0.14103575      0.09755665      0.84240782 S
atom_frac       0.64103585      0.09755664      0.84240783 S
atom_frac       0.13596450      0.33061332      0.58992206 S
atom_frac       0.63596451      0.33061333      0.58992205 S
atom_frac       0.38908476      0.10528831      0.85367407 S
atom_frac       0.88908483      0.10528829      0.85367410 S
atom_frac       0.38335905      0.34779479      0.59417311 S
atom_frac       0.88335905      0.34779479      0.59417310 S
atom_frac       0.48950579      0.49389487      0.98916360 Br
atom_frac       0.98950578      0.49389492      0.98916358 Br
atom_frac       0.49563806      0.24962630      0.74687190 Br
atom_frac       0.99563806      0.24962632      0.74687188 Br
atom_frac       0.25833245      0.49662076      0.74580584 Br
atom_frac       0.75833245      0.49662076      0.74580582 Br
atom_frac       0.24029689      0.19111980      0.68863678 Cl
atom_frac       0.74029688      0.19111980      0.68863679 Cl
atom_frac       0.00349882      0.19156414      0.94031808 Cl
atom_frac       0.50349881      0.19156416      0.94031808 Cl
atom_frac       0.48778463      0.44157609      0.68223480 Cl
atom_frac       0.98778464      0.44157609      0.68223480 Cl
atom_frac       0.24098737      0.24688547      0.49959831 Cl
atom_frac       0.74098737      0.24688547      0.49959831 Cl
atom_frac       0.18751510      0.59643086      0.17553560 Li
atom_frac       0.68751511      0.59643085      0.17553561 Li
atom_frac       0.03447686      0.60268098      0.42282695 Li
atom_frac       0.53447685      0.60268098      0.42282695 Li
atom_frac       0.04054180      0.92231363      0.08985858 Li
atom_frac       0.54054180      0.92231362      0.08985857 Li
atom_frac       0.25258405      0.91167024      0.34960972 Li
atom_frac       0.75258405      0.91167024      0.34960972 Li
atom_frac       0.18185420      0.73614055      0.25943467 Li
atom_frac       0.68185418      0.73614055      0.25943467 Li
atom_frac       0.10307310      0.68222188      0.02542317 Li
atom_frac       0.60307309      0.68222187      0.02542315 Li
atom_frac       0.44825175      0.99993062      0.24520592 Li
atom_frac       0.94825178      0.99993062      0.24520591 Li
atom_frac       0.28854213      0.99585854      0.49635781 Li
atom_frac       0.78854215      0.99585854      0.49635782 Li
atom_frac       0.38550236      0.65933473      0.24975919 Li
atom_frac       0.88550236      0.65933476      0.24975919 Li
atom_frac       0.07887941      0.73511231      0.15713048 Li
atom_frac       0.57887940      0.73511231      0.15713047 Li
atom_frac       0.31357916      0.75000291      0.09427205 Li
atom_frac       0.81357915      0.75000292      0.09427205 Li
atom_frac       0.33726291      0.99314890      0.14814518 Li
atom_frac       0.83726293      0.99314890      0.14814518 Li
atom_frac       0.34958220      0.66509237      0.00099766 Li
atom_frac       0.84958213      0.66509236      0.00099766 Li
atom_frac       0.14853940      0.91707117      0.22686994 Li
atom_frac       0.64853945      0.91707118      0.22686994 Li
atom_frac       0.42621600      0.74381595      0.35119750 Li
atom_frac       0.92621600      0.74381594      0.35119751 Li
atom_frac       0.14710397      0.75956970      0.41066779 Li
atom_frac       0.64710397      0.75956971      0.41066778 Li
atom_frac       0.41640150      0.84948371      0.23325469 Li
atom_frac       0.91640150      0.84948372      0.23325468 Li
atom_frac       0.39983233      0.89359623      0.48800630 Li
atom_frac       0.89983234      0.89359623      0.48800630 Li
atom_frac       0.12415691      0.99424930      0.40592392 Li
atom_frac       0.62415690      0.99424929      0.40592393 Li
atom_frac       0.38245977      0.00055749      0.38588002 Li
atom_frac       0.88245978      0.00055749      0.38588002 Li
atom_frac       0.17582145      0.85010417      0.48689038 Li
atom_frac       0.67582146      0.85010418      0.48689039 Li
atom_frac       0.00738985      0.87575849      0.36540678 P
atom_frac       0.50738987      0.87575849      0.36540679 P
atom_frac       0.25421531      0.62716890      0.38035199 P
atom_frac       0.75421536      0.62716893      0.38035198 P
atom_frac       0.24962297      0.86890087      0.12109202 P
atom_frac       0.74962298      0.86890087      0.12109202 P
atom_frac       0.47559562      0.62271157      0.12503463 P
atom_frac       0.97559564      0.62271156      0.12503465 P
atom_frac       0.26090864      0.93617543      0.43598693 S
atom_frac       0.76090864      0.93617543      0.43598694 S
atom_frac       0.33922675      0.59790855      0.10436858 S
atom_frac       0.83922676      0.59790856      0.10436859 S
atom_frac       0.08704912      0.58586356      0.09284627 S
atom_frac       0.58704911      0.58586356      0.09284626 S
atom_frac       0.38256255      0.84884768      0.33346625 S
atom_frac       0.88256253      0.84884767      0.33346625 S
atom_frac       0.12587748      0.84806463      0.32859859 S
atom_frac       0.62587749      0.84806463      0.32859858 S
atom_frac       0.48163447      0.71308239      0.08515591 S
atom_frac       0.98163444      0.71308239      0.08515592 S
atom_frac       0.50071018      0.60269517      0.21268619 S
atom_frac       0.00071016      0.60269519      0.21268622 S
atom_frac       0.25428230      0.71829719      0.35231248 S
atom_frac       0.75428227      0.71829721      0.35231247 S
atom_frac       0.24469227      0.83941989      0.21053985 S
atom_frac       0.74469227      0.83941988      0.21053985 S
atom_frac       0.22057864      0.95750182      0.09496502 S
atom_frac       0.72057864      0.95750182      0.09496502 S
atom_frac       0.23690226      0.59826404      0.46883373 S
atom_frac       0.73690225      0.59826403      0.46883371 S
atom_frac       0.01511237      0.96649362      0.33973363 S
atom_frac       0.51511236      0.96649362      0.33973364 S
atom_frac       0.01257204      0.83620234      0.45321076 S
atom_frac       0.51257203      0.83620233      0.45321076 S
atom_frac       0.14103580      0.59755666      0.34240779 S
atom_frac       0.64103583      0.59755665      0.34240782 S
atom_frac       0.13596451      0.83061333      0.08992205 S
atom_frac       0.63596451      0.83061334      0.08992204 S
atom_frac       0.38908481      0.60528830      0.35367408 S
atom_frac       0.88908482      0.60528829      0.35367407 S
atom_frac       0.38335905      0.84779477      0.09417312 S
atom_frac       0.88335905      0.84779478      0.09417311 S
atom_frac       0.48950579      0.99389487      0.48916355 Br
atom_frac       0.98950580      0.99389485      0.48916355 Br
atom_frac       0.49563804      0.74962631      0.24687184 Br
atom_frac       0.99563805      0.74962633      0.24687183 Br
atom_frac       0.25833243      0.99662075      0.24580578 Br
atom_frac       0.75833243      0.99662076      0.24580577 Br
atom_frac       0.24029689      0.69111980      0.18863678 Cl
atom_frac       0.74029687      0.69111980      0.18863678 Cl
atom_frac       0.00349880      0.69156416      0.44031808 Cl
atom_frac       0.50349880      0.69156417      0.44031807 Cl
atom_frac       0.48778464      0.94157609      0.18223481 Cl
atom_frac       0.98778464      0.94157609      0.18223480 Cl
atom_frac       0.24098738      0.74688547      0.99959831 Cl
atom_frac       0.74098736      0.74688547      0.99959831 Cl
atom_frac       0.18751511      0.59643085      0.67553560 Li
atom_frac       0.68751512      0.59643085      0.67553560 Li
atom_frac       0.03447676      0.60268096      0.92282695 Li
atom_frac       0.53447684      0.60268097      0.92282696 Li
atom_frac       0.04054179      0.92231363      0.58985857 Li
atom_frac       0.54054178      0.92231363      0.58985855 Li
atom_frac       0.25258406      0.91167022      0.84960973 Li
atom_frac       0.75258404      0.91167022      0.84960973 Li
atom_frac       0.18185422      0.73614056      0.75943467 Li
atom_frac       0.68185418      0.73614056      0.75943466 Li
atom_frac       0.10307310      0.68222187      0.52542315 Li
atom_frac       0.60307310      0.68222187      0.52542314 Li
atom_frac       0.44825175      0.99993062      0.74520593 Li
atom_frac       0.94825178      0.99993062      0.74520590 Li
atom_frac       0.28854213      0.99585853      0.99635782 Li
atom_frac       0.78854213      0.99585854      0.99635782 Li
atom_frac       0.38550236      0.65933473      0.74975919 Li
atom_frac       0.88550237      0.65933474      0.74975920 Li
atom_frac       0.07887938      0.73511230      0.65713050 Li
atom_frac       0.57887939      0.73511231      0.65713049 Li
atom_frac       0.31357916      0.75000292      0.59427205 Li
atom_frac       0.81357916      0.75000292      0.59427205 Li
atom_frac       0.33726289      0.99314889      0.64814519 Li
atom_frac       0.83726292      0.99314889      0.64814519 Li
atom_frac       0.34958219      0.66509236      0.50099765 Li
atom_frac       0.84958217      0.66509236      0.50099764 Li
atom_frac       0.14853940      0.91707117      0.72686995 Li
atom_frac       0.64853945      0.91707118      0.72686995 Li
atom_frac       0.42621604      0.74381596      0.85119752 Li
atom_frac       0.92621596      0.74381596      0.85119752 Li
atom_frac       0.14710401      0.75956968      0.91066778 Li
atom_frac       0.64710396      0.75956971      0.91066778 Li
atom_frac       0.41640151      0.84948370      0.73325469 Li
atom_frac       0.91640151      0.84948372      0.73325468 Li
atom_frac       0.39983237      0.89359622      0.98800632 Li
atom_frac       0.89983235      0.89359624      0.98800630 Li
atom_frac       0.12415699      0.99424922      0.90592389 Li
atom_frac       0.62415689      0.99424929      0.90592394 Li
atom_frac       0.38245978      0.00055749      0.88588003 Li
atom_frac       0.88245973      0.00055747      0.88587999 Li
atom_frac       0.17582146      0.85010417      0.98689039 Li
atom_frac       0.67582145      0.85010417      0.98689039 Li
atom_frac       0.00738983      0.87575849      0.86540677 P
atom_frac       0.50738987      0.87575849      0.86540679 P
atom_frac       0.25421527      0.62716887      0.88035204 P
atom_frac       0.75421534      0.62716892      0.88035200 P
atom_frac       0.24962297      0.86890087      0.62109202 P
atom_frac       0.74962298      0.86890087      0.62109202 P
atom_frac       0.47559563      0.62271156      0.62503463 P
atom_frac       0.97559563      0.62271156      0.62503463 P
atom_frac       0.26090870      0.93617539      0.93598695 S
atom_frac       0.76090863      0.93617542      0.93598695 S
atom_frac       0.33922675      0.59790854      0.60436859 S
atom_frac       0.83922675      0.59790855      0.60436858 S
atom_frac       0.08704911      0.58586356      0.59284625 S
atom_frac       0.58704911      0.58586356      0.59284626 S
atom_frac       0.38256255      0.84884768      0.83346625 S
atom_frac       0.88256251      0.84884765      0.83346626 S
atom_frac       0.12587747      0.84806462      0.82859860 S
atom_frac       0.62587748      0.84806463      0.82859858 S
atom_frac       0.48163446      0.71308239      0.58515591 S
atom_frac       0.98163446      0.71308239      0.58515591 S
atom_frac       0.50071019      0.60269517      0.71268619 S
atom_frac       0.00071019      0.60269518      0.71268620 S
atom_frac       0.25428238      0.71829717      0.85231247 S
atom_frac       0.75428226      0.71829721      0.85231247 S
atom_frac       0.24469228      0.83941989      0.71053985 S
atom_frac       0.74469227      0.83941989      0.71053985 S
atom_frac       0.22057862      0.95750182      0.59496502 S
atom_frac       0.72057862      0.95750182      0.59496502 S
atom_frac       0.23690238      0.59826405      0.96883378 S
atom_frac       0.73690216      0.59826403      0.96883373 S
atom_frac       0.01511237      0.96649362      0.83973363 S
atom_frac       0.51511237      0.96649362      0.83973365 S
atom_frac       0.01257205      0.83620234      0.95321074 S
atom_frac       0.51257204      0.83620232      0.95321076 S
atom_frac       0.14103576      0.59755665      0.84240782 S
atom_frac       0.64103585      0.59755664      0.84240782 S
atom_frac       0.13596450      0.83061332      0.58992205 S
atom_frac       0.63596451      0.83061333      0.58992205 S
atom_frac       0.38908476      0.60528830      0.85367408 S
atom_frac       0.88908482      0.60528828      0.85367410 S
atom_frac       0.38335904      0.84779478      0.59417311 S
atom_frac       0.88335905      0.84779478      0.59417310 S
atom_frac       0.48950581      0.99389485      0.98916360 Br
atom_frac       0.98950582      0.99389488      0.98916357 Br
atom_frac       0.49563805      0.74962629      0.74687189 Br
atom_frac       0.99563805      0.74962631      0.74687191 Br
atom_frac       0.25833243      0.99662074      0.74580583 Br
atom_frac       0.75833244      0.99662075      0.74580581 Br
atom_frac       0.24029688      0.69111980      0.68863678 Cl
atom_frac       0.74029687      0.69111980      0.68863679 Cl
atom_frac       0.00349881      0.69156414      0.94031808 Cl
atom_frac       0.50349882      0.69156416      0.94031808 Cl
atom_frac       0.48778463      0.94157609      0.68223480 Cl
atom_frac       0.98778464      0.94157609      0.68223480 Cl
atom_frac       0.24098738      0.74688547      0.49959831 Cl
atom_frac       0.74098737      0.74688547      0.49959831 Cl
# 
# What follows is the current estimated Hessian matrix constructed by the BFGS algorithm.
# This is NOT the true Hessian matrix of the system.
# If you do not want this information here, switch it off using the "hessian_to_restart_geometry" keyword.
# 
trust_radius             0.0563675424
hessian_file
