# 
# This is the geometry file that corresponds to the current relaxation step.
# If you do not want this file to be written, set the "write_restart_geometry" flag to .false.
#  aims_uuid : EF90ECA4-FAE2-4264-A450-04EA7045D8B9                                
# 
lattice_vector     24.79454021      0.00000019     -0.05649444
lattice_vector      0.00000012     14.32645467      0.00000103
lattice_vector     -7.99623434      0.00000029     22.94557508
atom_frac       0.49728523      0.15976276      0.19641859 Li
atom_frac       0.49728523      0.34023707      0.44641855 Li
atom_frac       0.24728531      0.40976256      0.19641865 Li
atom_frac       0.24728533      0.09023709      0.44641860 Li
atom_frac       0.40708002      0.00543358      0.44124278 Li
atom_frac       0.40707999      0.49456655      0.19124284 Li
atom_frac       0.15707975      0.25543361      0.44124261 Li
atom_frac       0.15707970      0.24456664      0.19124266 Li
atom_frac       0.39508969      0.25565163      0.19065629 Li
atom_frac       0.39508978      0.24434838      0.44065622 Li
atom_frac       0.14508957      0.00565168      0.19065619 Li
atom_frac       0.14508965      0.49434833      0.44065613 Li
atom_frac       0.35390237      0.37552375      0.02658349 Li
atom_frac       0.35390253      0.12447625      0.27658357 Li
atom_frac       0.10390223      0.12552372      0.02658339 Li
atom_frac       0.10390236      0.37447629      0.27658342 Li
atom_frac       0.49184420      0.46778311      0.07513503 Li
atom_frac       0.49184435      0.03221696      0.32513533 Li
atom_frac       0.24184425      0.21778293      0.07513501 Li
atom_frac       0.24184440      0.28221711      0.32513527 Li
atom_frac       0.49044947      0.22742810      0.32327405 Li
atom_frac       0.49044930      0.27257178      0.07327373 Li
atom_frac       0.24044948      0.47742820      0.32327380 Li
atom_frac       0.24044931      0.02257178      0.07327354 Li
atom_frac       0.37313632      0.37791909      0.31057086 P
atom_frac       0.37313607      0.12208073      0.06057058 P
atom_frac       0.12313654      0.12791903      0.31057083 P
atom_frac       0.12313641      0.37208089      0.06057063 P
atom_frac       0.34318321      0.49483034      0.33986909 S
atom_frac       0.34318311      0.00516969      0.08986919 S
atom_frac       0.09318298      0.24483007      0.33986885 S
atom_frac       0.09318288      0.25517003      0.08986888 S
atom_frac       0.34296267      0.24123422      0.08733013 S
atom_frac       0.34296267      0.25876558      0.33733009 S
atom_frac       0.09296243      0.49123399      0.08732997 S
atom_frac       0.09296246      0.00876583      0.33732997 S
atom_frac       0.46110336      0.12053969      0.09260859 S
atom_frac       0.46110361      0.37946039      0.34260854 S
atom_frac       0.21110369      0.37053959      0.09260863 S
atom_frac       0.21110381      0.12946050      0.34260863 S
atom_frac       0.34707184      0.38095301      0.22103537 S
atom_frac       0.34707170      0.11904712      0.47103500 S
atom_frac       0.09707163      0.13095296      0.22103532 S
atom_frac       0.09707150      0.36904718      0.47103504 S
atom_frac       0.43660279      0.12812537      0.24927206 S
atom_frac       0.43660261      0.37187479      0.49927166 S
atom_frac       0.18660264      0.37812530      0.24927193 S
atom_frac       0.18660247      0.12187479      0.49927154 S
atom_frac       0.49529164      0.36637886      0.18220624 I
atom_frac       0.49529185      0.13362038      0.43220670 I
atom_frac       0.24529125      0.11637868      0.18220615 I
atom_frac       0.24529158      0.38362006      0.43220690 I
atom_frac       0.49728491      0.15976270      0.69641842 Li
atom_frac       0.49728503      0.34023734      0.94641847 Li
atom_frac       0.24728504      0.40976260      0.69641849 Li
atom_frac       0.24728517      0.09023730      0.94641854 Li
atom_frac       0.40707978      0.00543342      0.94124268 Li
atom_frac       0.40707968      0.49456653      0.69124270 Li
atom_frac       0.15707955      0.25543345      0.94124252 Li
atom_frac       0.15707942      0.24456668      0.69124252 Li
atom_frac       0.39508950      0.25565176      0.69065605 Li
atom_frac       0.39508958      0.24434840      0.94065613 Li
atom_frac       0.14508939      0.00565185      0.69065600 Li
atom_frac       0.14508950      0.49434831      0.94065605 Li
atom_frac       0.35390285      0.37552376      0.52658384 Li
atom_frac       0.35390206      0.12447629      0.77658327 Li
atom_frac       0.10390265      0.12552372      0.52658372 Li
atom_frac       0.10390188      0.37447631      0.77658305 Li
atom_frac       0.49184416      0.46778314      0.57513476 Li
atom_frac       0.49184402      0.03221695      0.82513493 Li
atom_frac       0.24184419      0.21778299      0.57513473 Li
atom_frac       0.24184409      0.28221714      0.82513490 Li
atom_frac       0.49044914      0.22742822      0.82327364 Li
atom_frac       0.49044922      0.27257144      0.57327330 Li
atom_frac       0.24044915      0.47742830      0.82327343 Li
atom_frac       0.24044922      0.02257154      0.57327321 Li
atom_frac       0.37313606      0.37791927      0.81057068 P
atom_frac       0.37313603      0.12208073      0.56057046 P
atom_frac       0.12313632      0.12791926      0.81057063 P
atom_frac       0.12313639      0.37208084      0.56057054 P
atom_frac       0.34318287      0.49483040      0.83986896 S
atom_frac       0.34318303      0.00516978      0.58986912 S
atom_frac       0.09318268      0.24483013      0.83986875 S
atom_frac       0.09318285      0.25517008      0.58986885 S
atom_frac       0.34296254      0.24123415      0.58732997 S
atom_frac       0.34296242      0.25876576      0.83732994 S
atom_frac       0.09296237      0.49123391      0.58732985 S
atom_frac       0.09296221      0.00876607      0.83732978 S
atom_frac       0.46110329      0.12053948      0.59260857 S
atom_frac       0.46110335      0.37946043      0.84260842 S
atom_frac       0.21110364      0.37053943      0.59260863 S
atom_frac       0.21110359      0.12946053      0.84260855 S
atom_frac       0.34707154      0.38095296      0.72103520 S
atom_frac       0.34707164      0.11904702      0.97103511 S
atom_frac       0.09707133      0.13095298      0.72103513 S
atom_frac       0.09707146      0.36904709      0.97103513 S
atom_frac       0.43660236      0.12812541      0.74927177 S
atom_frac       0.43660252      0.37187469      0.99927185 S
atom_frac       0.18660227      0.37812537      0.74927164 S
atom_frac       0.18660241      0.12187474      0.99927169 S
atom_frac       0.49529098      0.36637932      0.68220523 I
atom_frac       0.49529094      0.13362139      0.93220574 I
atom_frac       0.24529037      0.11637934      0.68220519 I
atom_frac       0.24529087      0.38362141      0.93220567 I
atom_frac       0.49728524      0.65976269      0.19641860 Li
atom_frac       0.49728525      0.84023696      0.44641859 Li
atom_frac       0.24728535      0.90976270      0.19641866 Li
atom_frac       0.24728533      0.59023725      0.44641860 Li
atom_frac       0.40707999      0.50543358      0.44124275 Li
atom_frac       0.40708001      0.99456654      0.19124285 Li
atom_frac       0.15707973      0.75543353      0.44124263 Li
atom_frac       0.15707971      0.74456666      0.19124270 Li
atom_frac       0.39508974      0.75565162      0.19065631 Li
atom_frac       0.39508980      0.74434840      0.44065626 Li
atom_frac       0.14508953      0.50565164      0.19065619 Li
atom_frac       0.14508967      0.99434823      0.44065614 Li
atom_frac       0.35390237      0.87552375      0.02658350 Li
atom_frac       0.35390254      0.62447624      0.27658359 Li
atom_frac       0.10390223      0.62552372      0.02658342 Li
atom_frac       0.10390244      0.87447627      0.27658350 Li
atom_frac       0.49184420      0.96778309      0.07513511 Li
atom_frac       0.49184438      0.53221694      0.32513533 Li
atom_frac       0.24184425      0.71778293      0.07513507 Li
atom_frac       0.24184444      0.78221705      0.32513524 Li
atom_frac       0.49044951      0.72742806      0.32327410 Li
atom_frac       0.49044931      0.77257174      0.07327375 Li
atom_frac       0.24044950      0.97742814      0.32327389 Li
atom_frac       0.24044932      0.52257177      0.07327359 Li
atom_frac       0.37313634      0.87791913      0.31057085 P
atom_frac       0.37313603      0.62208080      0.06057065 P
atom_frac       0.12313652      0.62791905      0.31057083 P
atom_frac       0.12313642      0.87208089      0.06057067 P
atom_frac       0.34318323      0.99483034      0.33986913 S
atom_frac       0.34318311      0.50516966      0.08986921 S
atom_frac       0.09318298      0.74483009      0.33986888 S
atom_frac       0.09318289      0.75517004      0.08986891 S
atom_frac       0.34296265      0.74123432      0.08733017 S
atom_frac       0.34296273      0.75876559      0.33733011 S
atom_frac       0.09296242      0.99123400      0.08732999 S
atom_frac       0.09296246      0.50876582      0.33732995 S
atom_frac       0.46110333      0.62053965      0.09260859 S
atom_frac       0.46110363      0.87946038      0.34260859 S
atom_frac       0.21110370      0.87053961      0.09260865 S
atom_frac       0.21110378      0.62946049      0.34260858 S
atom_frac       0.34707185      0.88095295      0.22103537 S
atom_frac       0.34707176      0.61904717      0.47103507 S
atom_frac       0.09707163      0.63095300      0.22103532 S
atom_frac       0.09707154      0.86904713      0.47103509 S
atom_frac       0.43660280      0.62812535      0.24927208 S
atom_frac       0.43660267      0.87187476      0.49927175 S
atom_frac       0.18660269      0.87812536      0.24927194 S
atom_frac       0.18660250      0.62187481      0.49927160 S
atom_frac       0.49529152      0.86637888      0.18220625 I
atom_frac       0.49529150      0.63361966      0.43220698 I
atom_frac       0.24529092      0.61637869      0.18220614 I
atom_frac       0.24529133      0.88362019      0.43220678 I
atom_frac       0.49728492      0.65976279      0.69641848 Li
atom_frac       0.49728505      0.84023717      0.94641852 Li
atom_frac       0.24728504      0.90976278      0.69641852 Li
atom_frac       0.24728515      0.59023743      0.94641855 Li
atom_frac       0.40707960      0.50543332      0.94124268 Li
atom_frac       0.40707953      0.99456663      0.69124270 Li
atom_frac       0.15707948      0.75543335      0.94124255 Li
atom_frac       0.15707952      0.74456662      0.69124256 Li
atom_frac       0.39508950      0.75565170      0.69065612 Li
atom_frac       0.39508958      0.74434841      0.94065617 Li
atom_frac       0.14508940      0.50565183      0.69065599 Li
atom_frac       0.14508946      0.99434827      0.94065604 Li
atom_frac       0.35390289      0.87552372      0.52658391 Li
atom_frac       0.35390209      0.62447628      0.77658331 Li
atom_frac       0.10390273      0.62552375      0.52658382 Li
atom_frac       0.10390191      0.87447630      0.77658310 Li
atom_frac       0.49184415      0.96778314      0.57513487 Li
atom_frac       0.49184405      0.53221699      0.82513505 Li
atom_frac       0.24184423      0.71778298      0.57513478 Li
atom_frac       0.24184410      0.78221711      0.82513492 Li
atom_frac       0.49044912      0.72742818      0.82327372 Li
atom_frac       0.49044924      0.77257150      0.57327347 Li
atom_frac       0.24044914      0.97742826      0.82327351 Li
atom_frac       0.24044927      0.52257148      0.57327319 Li
atom_frac       0.37313604      0.87791933      0.81057073 P
atom_frac       0.37313605      0.62208072      0.56057053 P
atom_frac       0.12313632      0.62791926      0.81057065 P
atom_frac       0.12313643      0.87208090      0.56057058 P
atom_frac       0.34318286      0.99483043      0.83986904 S
atom_frac       0.34318311      0.50516969      0.58986915 S
atom_frac       0.09318267      0.74483014      0.83986875 S
atom_frac       0.09318289      0.75517014      0.58986890 S
atom_frac       0.34296259      0.74123418      0.58733002 S
atom_frac       0.34296242      0.75876578      0.83732997 S
atom_frac       0.09296234      0.99123394      0.58732987 S
atom_frac       0.09296225      0.50876602      0.83732978 S
atom_frac       0.46110333      0.62053949      0.59260863 S
atom_frac       0.46110334      0.87946039      0.84260850 S
atom_frac       0.21110368      0.87053945      0.59260869 S
atom_frac       0.21110358      0.62946051      0.84260853 S
atom_frac       0.34707151      0.88095290      0.72103525 S
atom_frac       0.34707162      0.61904712      0.97103519 S
atom_frac       0.09707136      0.63095300      0.72103515 S
atom_frac       0.09707144      0.86904705      0.97103516 S
atom_frac       0.43660240      0.62812531      0.74927183 S
atom_frac       0.43660255      0.87187473      0.99927188 S
atom_frac       0.18660229      0.87812538      0.74927167 S
atom_frac       0.18660242      0.62187473      0.99927175 S
atom_frac       0.49529087      0.86637942      0.68220519 I
atom_frac       0.49529084      0.63362119      0.93220591 I
atom_frac       0.24529060      0.61637918      0.68220541 I
atom_frac       0.24529083      0.88362116      0.93220575 I
atom_frac       0.99728514      0.15976266      0.19641843 Li
atom_frac       0.99728509      0.34023722      0.44641836 Li
atom_frac       0.74728516      0.40976261      0.19641844 Li
atom_frac       0.74728516      0.09023715      0.44641843 Li
atom_frac       0.90707969      0.00543351      0.44124259 Li
atom_frac       0.90707967      0.49456665      0.19124267 Li
atom_frac       0.65707946      0.25543343      0.44124259 Li
atom_frac       0.65707942      0.24456675      0.19124261 Li
atom_frac       0.89508951      0.25565169      0.19065608 Li
atom_frac       0.89508956      0.24434836      0.44065603 Li
atom_frac       0.64508935      0.00565148      0.19065615 Li
atom_frac       0.64508943      0.49434849      0.44065613 Li
atom_frac       0.85390200      0.37552373      0.02658311 Li
atom_frac       0.85390221      0.12447625      0.27658324 Li
atom_frac       0.60390253      0.12552368      0.02658368 Li
atom_frac       0.60390275      0.37447629      0.27658380 Li
atom_frac       0.99184405      0.46778307      0.07513483 Li
atom_frac       0.99184421      0.03221702      0.32513509 Li
atom_frac       0.74184414      0.21778291      0.07513488 Li
atom_frac       0.74184429      0.28221707      0.32513506 Li
atom_frac       0.99044931      0.22742820      0.32327381 Li
atom_frac       0.99044914      0.27257171      0.07327352 Li
atom_frac       0.74044935      0.47742813      0.32327365 Li
atom_frac       0.74044919      0.02257180      0.07327341 Li
atom_frac       0.87313613      0.37791916      0.31057070 P
atom_frac       0.87313590      0.12208072      0.06057044 P
atom_frac       0.62313655      0.12791902      0.31057079 P
atom_frac       0.62313641      0.37208092      0.06057060 P
atom_frac       0.84318303      0.49483041      0.33986893 S
atom_frac       0.84318295      0.00516965      0.08986903 S
atom_frac       0.59318296      0.24482997      0.33986884 S
atom_frac       0.59318290      0.25517006      0.08986884 S
atom_frac       0.84296250      0.24123424      0.08732993 S
atom_frac       0.84296252      0.25876558      0.33732989 S
atom_frac       0.59296243      0.49123398      0.08732997 S
atom_frac       0.59296245      0.00876590      0.33732997 S
atom_frac       0.96110321      0.12053961      0.09260841 S
atom_frac       0.96110343      0.37946049      0.34260835 S
atom_frac       0.71110368      0.37053957      0.09260849 S
atom_frac       0.71110381      0.12946049      0.34260849 S
atom_frac       0.84707166      0.38095304      0.22103521 S
atom_frac       0.84707156      0.11904708      0.47103493 S
atom_frac       0.59707157      0.13095287      0.22103529 S
atom_frac       0.59707148      0.36904725      0.47103507 S
atom_frac       0.93660260      0.12812542      0.24927181 S
atom_frac       0.93660241      0.37187478      0.49927148 S
atom_frac       0.68660264      0.37812528      0.24927177 S
atom_frac       0.68660250      0.12187483      0.49927151 S
atom_frac       0.99529103      0.36637878      0.18220609 I
atom_frac       0.99529141      0.13362047      0.43220684 I
atom_frac       0.74529067      0.11637873      0.18220613 I
atom_frac       0.74529107      0.38362001      0.43220656 I
atom_frac       0.99728486      0.15976277      0.69641828 Li
atom_frac       0.99728497      0.34023741      0.94641834 Li
atom_frac       0.74728489      0.40976264      0.69641834 Li
atom_frac       0.74728501      0.09023731      0.94641836 Li
atom_frac       0.90707948      0.00543333      0.94124253 Li
atom_frac       0.90707938      0.49456671      0.69124255 Li
atom_frac       0.65707924      0.25543329      0.94124248 Li
atom_frac       0.65707913      0.24456678      0.69124251 Li
atom_frac       0.89508940      0.25565189      0.69065591 Li
atom_frac       0.89508943      0.24434832      0.94065595 Li
atom_frac       0.64508925      0.00565172      0.69065600 Li
atom_frac       0.64508927      0.49434843      0.94065599 Li
atom_frac       0.85390245      0.37552373      0.52658348 Li
atom_frac       0.85390174      0.12447629      0.77658290 Li
atom_frac       0.60390307      0.12552366      0.52658417 Li
atom_frac       0.60390217      0.37447631      0.77658335 Li
atom_frac       0.99184403      0.46778317      0.57513456 Li
atom_frac       0.99184391      0.03221703      0.82513478 Li
atom_frac       0.74184412      0.21778300      0.57513466 Li
atom_frac       0.74184399      0.28221712      0.82513476 Li
atom_frac       0.99044902      0.22742828      0.82327352 Li
atom_frac       0.99044907      0.27257151      0.57327319 Li
atom_frac       0.74044902      0.47742827      0.82327330 Li
atom_frac       0.74044914      0.02257151      0.57327310 Li
atom_frac       0.87313591      0.37791934      0.81057053 P
atom_frac       0.87313589      0.12208072      0.56057038 P
atom_frac       0.62313629      0.12791921      0.81057059 P
atom_frac       0.62313640      0.37208091      0.56057056 P
atom_frac       0.84318273      0.49483044      0.83986885 S
atom_frac       0.84318293      0.00516973      0.58986902 S
atom_frac       0.59318266      0.24483006      0.83986872 S
atom_frac       0.59318290      0.25517013      0.58986885 S
atom_frac       0.84296244      0.24123420      0.58732986 S
atom_frac       0.84296230      0.25876576      0.83732976 S
atom_frac       0.59296238      0.49123392      0.58732991 S
atom_frac       0.59296221      0.00876609      0.83732980 S
atom_frac       0.96110318      0.12053951      0.59260842 S
atom_frac       0.96110321      0.37946048      0.84260830 S
atom_frac       0.71110366      0.37053943      0.59260855 S
atom_frac       0.71110356      0.12946052      0.84260840 S
atom_frac       0.84707137      0.38095300      0.72103506 S
atom_frac       0.84707148      0.11904699      0.97103498 S
atom_frac       0.59707125      0.13095284      0.72103510 S
atom_frac       0.59707137      0.36904716      0.97103510 S
atom_frac       0.93660225      0.12812549      0.74927159 S
atom_frac       0.93660234      0.37187467      0.99927162 S
atom_frac       0.68660225      0.37812534      0.74927154 S
atom_frac       0.68660240      0.12187475      0.99927158 S
atom_frac       0.99529025      0.36637961      0.68220502 I
atom_frac       0.99529059      0.13362133      0.93220575 I
atom_frac       0.74529000      0.11637946      0.68220508 I
atom_frac       0.74529035      0.38362153      0.93220570 I
atom_frac       0.99728511      0.65976250      0.19641845 Li
atom_frac       0.99728512      0.84023719      0.44641842 Li
atom_frac       0.74728519      0.90976279      0.19641847 Li
atom_frac       0.74728519      0.59023702      0.44641843 Li
atom_frac       0.90707968      0.50543353      0.44124258 Li
atom_frac       0.90707971      0.99456660      0.19124268 Li
atom_frac       0.65707948      0.75543340      0.44124264 Li
atom_frac       0.65707949      0.74456677      0.19124266 Li
atom_frac       0.89508954      0.75565164      0.19065613 Li
atom_frac       0.89508962      0.74434838      0.44065607 Li
atom_frac       0.64508935      0.50565149      0.19065614 Li
atom_frac       0.64508943      0.99434847      0.44065614 Li
atom_frac       0.85390206      0.87552375      0.02658321 Li
atom_frac       0.85390223      0.62447627      0.27658331 Li
atom_frac       0.60390254      0.62552366      0.02658372 Li
atom_frac       0.60390280      0.87447635      0.27658385 Li
atom_frac       0.99184407      0.96778304      0.07513495 Li
atom_frac       0.99184423      0.53221701      0.32513514 Li
atom_frac       0.74184415      0.71778290      0.07513493 Li
atom_frac       0.74184431      0.78221710      0.32513519 Li
atom_frac       0.99044933      0.72742822      0.32327384 Li
atom_frac       0.99044916      0.77257167      0.07327358 Li
atom_frac       0.74044936      0.97742813      0.32327377 Li
atom_frac       0.74044920      0.52257179      0.07327346 Li
atom_frac       0.87313615      0.87791918      0.31057073 P
atom_frac       0.87313585      0.62208071      0.06057045 P
atom_frac       0.62313655      0.62791903      0.31057082 P
atom_frac       0.62313643      0.87208090      0.06057062 P
atom_frac       0.84318301      0.99483041      0.33986894 S
atom_frac       0.84318293      0.50516957      0.08986901 S
atom_frac       0.59318300      0.74483005      0.33986886 S
atom_frac       0.59318290      0.75517007      0.08986888 S
atom_frac       0.84296251      0.74123425      0.08732998 S
atom_frac       0.84296251      0.75876563      0.33732993 S
atom_frac       0.59296243      0.99123397      0.08732996 S
atom_frac       0.59296248      0.50876584      0.33732995 S
atom_frac       0.96110316      0.62053958      0.09260838 S
atom_frac       0.96110345      0.87946052      0.34260840 S
atom_frac       0.71110370      0.87053960      0.09260853 S
atom_frac       0.71110381      0.62946046      0.34260849 S
atom_frac       0.84707167      0.88095298      0.22103524 S
atom_frac       0.84707155      0.61904713      0.47103491 S
atom_frac       0.59707161      0.63095295      0.22103532 S
atom_frac       0.59707149      0.86904718      0.47103513 S
atom_frac       0.93660259      0.62812537      0.24927188 S
atom_frac       0.93660246      0.87187479      0.49927154 S
atom_frac       0.68660271      0.87812531      0.24927185 S
atom_frac       0.68660256      0.62187480      0.49927155 S
atom_frac       0.99529096      0.86637866      0.18220616 I
atom_frac       0.99529115      0.63362042      0.43220680 I
atom_frac       0.74529059      0.61637862      0.18220620 I
atom_frac       0.74529106      0.88362051      0.43220690 I
atom_frac       0.99728485      0.65976255      0.69641829 Li
atom_frac       0.99728496      0.84023737      0.94641837 Li
atom_frac       0.74728491      0.90976281      0.69641838 Li
atom_frac       0.74728501      0.59023729      0.94641836 Li
atom_frac       0.90707943      0.50543332      0.94124252 Li
atom_frac       0.90707943      0.99456666      0.69124256 Li
atom_frac       0.65707927      0.75543325      0.94124253 Li
atom_frac       0.65707926      0.74456675      0.69124255 Li
atom_frac       0.89508939      0.75565180      0.69065595 Li
atom_frac       0.89508943      0.74434838      0.94065599 Li
atom_frac       0.64508923      0.50565172      0.69065599 Li
atom_frac       0.64508927      0.99434841      0.94065602 Li
atom_frac       0.85390255      0.87552375      0.52658362 Li
atom_frac       0.85390182      0.62447628      0.77658304 Li
atom_frac       0.60390312      0.62552366      0.52658422 Li
atom_frac       0.60390218      0.87447633      0.77658341 Li
atom_frac       0.99184403      0.96778313      0.57513467 Li
atom_frac       0.99184395      0.53221700      0.82513481 Li
atom_frac       0.74184415      0.71778299      0.57513473 Li
atom_frac       0.74184399      0.78221712      0.82513483 Li
atom_frac       0.99044902      0.72742829      0.82327353 Li
atom_frac       0.99044910      0.77257145      0.57327322 Li
atom_frac       0.74044902      0.97742824      0.82327341 Li
atom_frac       0.74044917      0.52257154      0.57327319 Li
atom_frac       0.87313591      0.87791939      0.81057054 P
atom_frac       0.87313586      0.62208070      0.56057037 P
atom_frac       0.62313626      0.62791925      0.81057062 P
atom_frac       0.62313639      0.87208088      0.56057062 P
atom_frac       0.84318272      0.99483049      0.83986886 S
atom_frac       0.84318293      0.50516964      0.58986898 S
atom_frac       0.59318265      0.74483009      0.83986879 S
atom_frac       0.59318288      0.75517011      0.58986892 S
atom_frac       0.84296244      0.74123417      0.58732988 S
atom_frac       0.84296229      0.75876584      0.83732979 S
atom_frac       0.59296234      0.99123391      0.58732993 S
atom_frac       0.59296219      0.50876603      0.83732976 S
atom_frac       0.96110315      0.62053945      0.59260839 S
atom_frac       0.96110321      0.87946051      0.84260832 S
atom_frac       0.71110365      0.87053945      0.59260862 S
atom_frac       0.71110353      0.62946051      0.84260840 S
atom_frac       0.84707138      0.88095300      0.72103507 S
atom_frac       0.84707147      0.61904706      0.97103499 S
atom_frac       0.59707128      0.63095296      0.72103514 S
atom_frac       0.59707138      0.86904706      0.97103512 S
atom_frac       0.93660225      0.62812543      0.74927165 S
atom_frac       0.93660238      0.87187469      0.99927169 S
atom_frac       0.68660228      0.87812535      0.74927160 S
atom_frac       0.68660241      0.62187472      0.99927163 S
atom_frac       0.99529020      0.86637935      0.68220513 I
atom_frac       0.99529050      0.63362125      0.93220588 I
atom_frac       0.74528994      0.61637924      0.68220532 I
atom_frac       0.74529014      0.88362130      0.93220573 I
# 
# What follows is the current estimated Hessian matrix constructed by the BFGS algorithm.
# This is NOT the true Hessian matrix of the system.
# If you do not want this information here, switch it off using the "hessian_to_restart_geometry" keyword.
# 
trust_radius             0.2000000030
hessian_file
