# 
# This is the geometry file that corresponds to the current relaxation step.
# If you do not want this file to be written, set the "write_restart_geometry" flag to .false.
#  aims_uuid : 22D58888-383E-48F3-AE8F-D70C4E6783DE                                
# 
lattice_vector     24.70256946      0.00000021     -0.05415701
lattice_vector      0.00000195     14.27021248     -0.00000146
lattice_vector     -7.96862634     -0.00000024     22.87032726
atom_frac       0.49707817      0.16113131      0.19648800 Li
atom_frac       0.49707793      0.33886884      0.44648781 Li
atom_frac       0.24707751      0.41113150      0.19648717 Li
atom_frac       0.24707716      0.08886853      0.44648691 Li
atom_frac       0.40777429      0.00616569      0.44113503 Li
atom_frac       0.40777432      0.49383391      0.19113523 Li
atom_frac       0.15777479      0.25616561      0.44113531 Li
atom_frac       0.15777491      0.24383381      0.19113561 Li
atom_frac       0.39593373      0.25586131      0.19081210 Li
atom_frac       0.39593371      0.24413889      0.44081192 Li
atom_frac       0.14593423      0.00586110      0.19081227 Li
atom_frac       0.14593418      0.49413929      0.44081195 Li
atom_frac       0.35312503      0.37578459      0.02549221 Li
atom_frac       0.35312497      0.12421536      0.27549205 Li
atom_frac       0.10312523      0.12578481      0.02549201 Li
atom_frac       0.10312518      0.37421522      0.27549185 Li
atom_frac       0.49182704      0.46697976      0.07574586 Li
atom_frac       0.49182692      0.03302036      0.32574584 Li
atom_frac       0.24182642      0.21698063      0.07574612 Li
atom_frac       0.24182642      0.28301955      0.32574604 Li
atom_frac       0.49018714      0.22589846      0.32390522 Li
atom_frac       0.49018723      0.27410119      0.07390523 Li
atom_frac       0.24018689      0.47589893      0.32390551 Li
atom_frac       0.24018698      0.02410066      0.07390554 Li
atom_frac       0.37308427      0.37752526      0.31049014 P
atom_frac       0.37308404      0.12247469      0.06048884 P
atom_frac       0.12308136      0.12752606      0.31048969 P
atom_frac       0.12308075      0.37247369      0.06048818 P
atom_frac       0.34290014      0.49496726      0.33977967 S
atom_frac       0.34290055      0.00503353      0.08977999 S
atom_frac       0.09290083      0.24497011      0.33978070 S
atom_frac       0.09290132      0.25503046      0.08978125 S
atom_frac       0.34290383      0.24216444      0.08749256 S
atom_frac       0.34290352      0.25783460      0.33749221 S
atom_frac       0.09290506      0.49216665      0.08749313 S
atom_frac       0.09290450      0.00783248      0.33749263 S
atom_frac       0.46141271      0.12081477      0.09250157 S
atom_frac       0.46141297      0.37918504      0.34250102 S
atom_frac       0.21140957      0.37081527      0.09250026 S
atom_frac       0.21141020      0.12918466      0.34249981 S
atom_frac       0.34675328      0.38036722      0.22063573 S
atom_frac       0.34675274      0.11963260      0.47063446 S
atom_frac       0.09675432      0.13036700      0.22063545 S
atom_frac       0.09675390      0.36963296      0.47063398 S
atom_frac       0.43645739      0.12767051      0.24918592 S
atom_frac       0.43645743      0.37232929      0.49918613 S
atom_frac       0.18645788      0.37767052      0.24918623 S
atom_frac       0.18645793      0.12232933      0.49918644 S
atom_frac       0.49556369      0.36739156      0.18253788 I
atom_frac       0.49556390      0.13260980      0.43253828 I
atom_frac       0.24556409      0.11739138      0.18253777 I
atom_frac       0.24556424      0.38260987      0.43253803 I
atom_frac       0.49707822      0.16113130      0.69648797 Li
atom_frac       0.49707796      0.33886888      0.94648781 Li
atom_frac       0.24707757      0.41113158      0.69648714 Li
atom_frac       0.24707721      0.08886851      0.94648690 Li
atom_frac       0.40777433      0.00616575      0.94113505 Li
atom_frac       0.40777443      0.49383395      0.69113522 Li
atom_frac       0.15777491      0.25616572      0.94113534 Li
atom_frac       0.15777496      0.24383392      0.69113560 Li
atom_frac       0.39593376      0.25586144      0.69081210 Li
atom_frac       0.39593373      0.24413902      0.94081192 Li
atom_frac       0.14593422      0.00586120      0.69081227 Li
atom_frac       0.14593425      0.49413936      0.94081195 Li
atom_frac       0.35312499      0.37578455      0.52549218 Li
atom_frac       0.35312500      0.12421547      0.77549200 Li
atom_frac       0.10312519      0.12578481      0.52549200 Li
atom_frac       0.10312526      0.37421531      0.77549184 Li
atom_frac       0.49182703      0.46697984      0.57574576 Li
atom_frac       0.49182694      0.03302047      0.82574580 Li
atom_frac       0.24182642      0.21698076      0.57574600 Li
atom_frac       0.24182646      0.28301964      0.82574596 Li
atom_frac       0.49018717      0.22589863      0.82390520 Li
atom_frac       0.49018725      0.27410125      0.57390526 Li
atom_frac       0.24018697      0.47589909      0.82390548 Li
atom_frac       0.24018697      0.02410075      0.57390554 Li
atom_frac       0.37308433      0.37752528      0.81049013 P
atom_frac       0.37308403      0.12247473      0.56048882 P
atom_frac       0.12308144      0.12752610      0.81048969 P
atom_frac       0.12308073      0.37247370      0.56048817 P
atom_frac       0.34290025      0.49496734      0.83977964 S
atom_frac       0.34290050      0.00503360      0.58977996 S
atom_frac       0.09290093      0.24497019      0.83978069 S
atom_frac       0.09290131      0.25503046      0.58978124 S
atom_frac       0.34290387      0.24216449      0.58749258 S
atom_frac       0.34290355      0.25783467      0.83749220 S
atom_frac       0.09290513      0.49216671      0.58749316 S
atom_frac       0.09290457      0.00783256      0.83749267 S
atom_frac       0.46141270      0.12081488      0.59250151 S
atom_frac       0.46141303      0.37918523      0.84250103 S
atom_frac       0.21140956      0.37081542      0.59250023 S
atom_frac       0.21141027      0.12918482      0.84249981 S
atom_frac       0.34675334      0.38036738      0.72063572 S
atom_frac       0.34675278      0.11963271      0.97063448 S
atom_frac       0.09675436      0.13036714      0.72063544 S
atom_frac       0.09675397      0.36963305      0.97063399 S
atom_frac       0.43645744      0.12767068      0.74918590 S
atom_frac       0.43645746      0.37232942      0.99918614 S
atom_frac       0.18645795      0.37767070      0.74918620 S
atom_frac       0.18645798      0.12232938      0.99918645 S
atom_frac       0.49556367      0.36739047      0.68253736 I
atom_frac       0.49556389      0.13260902      0.93253770 I
atom_frac       0.24556401      0.11739051      0.68253729 I
atom_frac       0.24556417      0.38260914      0.93253765 I
atom_frac       0.49707818      0.66113126      0.19648803 Li
atom_frac       0.49707790      0.83886879      0.44648781 Li
atom_frac       0.24707752      0.91113148      0.19648716 Li
atom_frac       0.24707715      0.58886855      0.44648691 Li
atom_frac       0.40777426      0.50616560      0.44113507 Li
atom_frac       0.40777439      0.99383381      0.19113524 Li
atom_frac       0.15777478      0.75616556      0.44113535 Li
atom_frac       0.15777490      0.74383379      0.19113564 Li
atom_frac       0.39593379      0.75586132      0.19081213 Li
atom_frac       0.39593368      0.74413890      0.44081193 Li
atom_frac       0.14593418      0.50586102      0.19081227 Li
atom_frac       0.14593414      0.99413935      0.44081195 Li
atom_frac       0.35312504      0.87578454      0.02549220 Li
atom_frac       0.35312493      0.62421535      0.27549202 Li
atom_frac       0.10312521      0.62578482      0.02549201 Li
atom_frac       0.10312517      0.87421514      0.27549185 Li
atom_frac       0.49182705      0.96697973      0.07574588 Li
atom_frac       0.49182691      0.53302038      0.32574590 Li
atom_frac       0.24182642      0.71698063      0.07574610 Li
atom_frac       0.24182640      0.78301960      0.32574610 Li
atom_frac       0.49018712      0.72589841      0.32390529 Li
atom_frac       0.49018725      0.77410118      0.07390523 Li
atom_frac       0.24018691      0.97589888      0.32390558 Li
atom_frac       0.24018696      0.52410069      0.07390555 Li
atom_frac       0.37308429      0.87752520      0.31049013 P
atom_frac       0.37308407      0.62247469      0.06048882 P
atom_frac       0.12308137      0.62752606      0.31048967 P
atom_frac       0.12308074      0.87247366      0.06048815 P
atom_frac       0.34290013      0.99496721      0.33977963 S
atom_frac       0.34290049      0.50503361      0.08977996 S
atom_frac       0.09290084      0.74497006      0.33978075 S
atom_frac       0.09290132      0.75503049      0.08978128 S
atom_frac       0.34290385      0.74216440      0.08749259 S
atom_frac       0.34290349      0.75783462      0.33749221 S
atom_frac       0.09290507      0.99216664      0.08749313 S
atom_frac       0.09290449      0.50783255      0.33749266 S
atom_frac       0.46141273      0.62081481      0.09250158 S
atom_frac       0.46141299      0.87918503      0.34250105 S
atom_frac       0.21140956      0.87081526      0.09250029 S
atom_frac       0.21141020      0.62918471      0.34249982 S
atom_frac       0.34675327      0.88036724      0.22063572 S
atom_frac       0.34675272      0.61963256      0.47063445 S
atom_frac       0.09675429      0.63036695      0.22063543 S
atom_frac       0.09675385      0.86963297      0.47063395 S
atom_frac       0.43645738      0.62767051      0.24918597 S
atom_frac       0.43645740      0.87232938      0.49918610 S
atom_frac       0.18645789      0.87767057      0.24918624 S
atom_frac       0.18645794      0.62232926      0.49918648 S
atom_frac       0.49556369      0.86739115      0.18253789 I
atom_frac       0.49556385      0.63260972      0.43253821 I
atom_frac       0.24556419      0.61739094      0.18253781 I
atom_frac       0.24556427      0.88260968      0.43253821 I
atom_frac       0.49707819      0.66113138      0.69648797 Li
atom_frac       0.49707797      0.83886877      0.94648781 Li
atom_frac       0.24707755      0.91113157      0.69648713 Li
atom_frac       0.24707720      0.58886858      0.94648690 Li
atom_frac       0.40777436      0.50616575      0.94113508 Li
atom_frac       0.40777438      0.99383397      0.69113523 Li
atom_frac       0.15777490      0.75616571      0.94113534 Li
atom_frac       0.15777498      0.74383389      0.69113563 Li
atom_frac       0.39593372      0.75586138      0.69081212 Li
atom_frac       0.39593378      0.74413898      0.94081195 Li
atom_frac       0.14593421      0.50586116      0.69081228 Li
atom_frac       0.14593425      0.99413938      0.94081196 Li
atom_frac       0.35312498      0.87578454      0.52549221 Li
atom_frac       0.35312503      0.62421546      0.77549204 Li
atom_frac       0.10312518      0.62578483      0.52549200 Li
atom_frac       0.10312524      0.87421524      0.77549184 Li
atom_frac       0.49182702      0.96697981      0.57574577 Li
atom_frac       0.49182696      0.53302045      0.82574581 Li
atom_frac       0.24182640      0.71698074      0.57574603 Li
atom_frac       0.24182645      0.78301964      0.82574597 Li
atom_frac       0.49018718      0.72589859      0.82390524 Li
atom_frac       0.49018720      0.77410125      0.57390521 Li
atom_frac       0.24018698      0.97589903      0.82390553 Li
atom_frac       0.24018699      0.52410078      0.57390562 Li
atom_frac       0.37308434      0.87752522      0.81049011 P
atom_frac       0.37308403      0.62247473      0.56048880 P
atom_frac       0.12308143      0.62752611      0.81048966 P
atom_frac       0.12308072      0.87247367      0.56048813 P
atom_frac       0.34290023      0.99496729      0.83977960 S
atom_frac       0.34290049      0.50503360      0.58977994 S
atom_frac       0.09290092      0.74497015      0.83978072 S
atom_frac       0.09290132      0.75503050      0.58978128 S
atom_frac       0.34290385      0.74216442      0.58749261 S
atom_frac       0.34290356      0.75783467      0.83749225 S
atom_frac       0.09290512      0.99216667      0.58749315 S
atom_frac       0.09290454      0.50783261      0.83749267 S
atom_frac       0.46141270      0.62081490      0.59250154 S
atom_frac       0.46141304      0.87918522      0.84250105 S
atom_frac       0.21140955      0.87081540      0.59250027 S
atom_frac       0.21141026      0.62918486      0.84249982 S
atom_frac       0.34675329      0.88036738      0.72063571 S
atom_frac       0.34675277      0.61963273      0.97063447 S
atom_frac       0.09675434      0.63036711      0.72063542 S
atom_frac       0.09675393      0.86963309      0.97063397 S
atom_frac       0.43645745      0.62767065      0.74918593 S
atom_frac       0.43645748      0.87232944      0.99918614 S
atom_frac       0.18645795      0.87767074      0.74918621 S
atom_frac       0.18645797      0.62232937      0.99918646 S
atom_frac       0.49556377      0.86739022      0.68253748 I
atom_frac       0.49556385      0.63260872      0.93253776 I
atom_frac       0.24556406      0.61739006      0.68253730 I
atom_frac       0.24556417      0.88260876      0.93253769 I
atom_frac       0.99707827      0.16113133      0.19648805 Li
atom_frac       0.99707801      0.33886880      0.44648785 Li
atom_frac       0.74707762      0.41113144      0.19648730 Li
atom_frac       0.74707727      0.08886855      0.44648701 Li
atom_frac       0.90777450      0.00616585      0.44113510 Li
atom_frac       0.90777461      0.49383373      0.19113529 Li
atom_frac       0.65777512      0.25616590      0.44113530 Li
atom_frac       0.65777520      0.24383358      0.19113561 Li
atom_frac       0.89593395      0.25586142      0.19081216 Li
atom_frac       0.89593385      0.24413888      0.44081197 Li
atom_frac       0.64593434      0.00586127      0.19081227 Li
atom_frac       0.64593434      0.49413911      0.44081195 Li
atom_frac       0.85312531      0.37578456      0.02549242 Li
atom_frac       0.85312519      0.12421541      0.27549221 Li
atom_frac       0.60312486      0.12578482      0.02549179 Li
atom_frac       0.60312482      0.37421524      0.27549162 Li
atom_frac       0.99182713      0.46697976      0.07574588 Li
atom_frac       0.99182701      0.03302038      0.32574586 Li
atom_frac       0.74182649      0.21698060      0.07574609 Li
atom_frac       0.74182650      0.28301965      0.32574609 Li
atom_frac       0.99018724      0.22589841      0.32390529 Li
atom_frac       0.99018735      0.27410125      0.07390529 Li
atom_frac       0.74018700      0.47589888      0.32390553 Li
atom_frac       0.74018705      0.02410075      0.07390549 Li
atom_frac       0.87308429      0.37752526      0.31049020 P
atom_frac       0.87308405      0.12247470      0.06048888 P
atom_frac       0.62308148      0.12752608      0.31048971 P
atom_frac       0.62308087      0.37247364      0.06048821 P
atom_frac       0.84290023      0.49496734      0.33977975 S
atom_frac       0.84290060      0.00503350      0.08978005 S
atom_frac       0.59290080      0.24497004      0.33978074 S
atom_frac       0.59290128      0.25503053      0.08978130 S
atom_frac       0.84290390      0.24216453      0.08749264 S
atom_frac       0.84290357      0.25783453      0.33749226 S
atom_frac       0.59290508      0.49216655      0.08749318 S
atom_frac       0.59290451      0.00783258      0.33749270 S
atom_frac       0.96141266      0.12081483      0.09250155 S
atom_frac       0.96141293      0.37918502      0.34250103 S
atom_frac       0.71140965      0.37081534      0.09250030 S
atom_frac       0.71141028      0.12918464      0.34249982 S
atom_frac       0.84675339      0.38036718      0.22063577 S
atom_frac       0.84675284      0.11963268      0.47063449 S
atom_frac       0.59675434      0.13036716      0.22063542 S
atom_frac       0.59675395      0.36963284      0.47063396 S
atom_frac       0.93645743      0.12767053      0.24918592 S
atom_frac       0.93645748      0.37232933      0.49918614 S
atom_frac       0.68645771      0.37767055      0.24918620 S
atom_frac       0.68645775      0.12232931      0.49918637 S
atom_frac       0.99556402      0.36739174      0.18253772 I
atom_frac       0.99556409      0.13260952      0.43253807 I
atom_frac       0.74556432      0.11739145      0.18253765 I
atom_frac       0.74556449      0.38260987      0.43253796 I
atom_frac       0.99707831      0.16113136      0.69648800 Li
atom_frac       0.99707805      0.33886884      0.94648783 Li
atom_frac       0.74707766      0.41113152      0.69648724 Li
atom_frac       0.74707730      0.08886862      0.94648700 Li
atom_frac       0.90777460      0.00616598      0.94113510 Li
atom_frac       0.90777473      0.49383377      0.69113530 Li
atom_frac       0.65777522      0.25616603      0.94113531 Li
atom_frac       0.65777530      0.24383361      0.69113558 Li
atom_frac       0.89593396      0.25586151      0.69081216 Li
atom_frac       0.89593392      0.24413895      0.94081196 Li
atom_frac       0.64593440      0.00586144      0.69081224 Li
atom_frac       0.64593441      0.49413916      0.94081196 Li
atom_frac       0.85312530      0.37578458      0.52549246 Li
atom_frac       0.85312527      0.12421549      0.77549220 Li
atom_frac       0.60312488      0.12578479      0.52549180 Li
atom_frac       0.60312491      0.37421529      0.77549164 Li
atom_frac       0.99182716      0.46697987      0.57574580 Li
atom_frac       0.99182706      0.03302044      0.82574579 Li
atom_frac       0.74182651      0.21698071      0.57574597 Li
atom_frac       0.74182655      0.28301970      0.82574595 Li
atom_frac       0.99018731      0.22589857      0.82390526 Li
atom_frac       0.99018737      0.27410130      0.57390530 Li
atom_frac       0.74018705      0.47589903      0.82390544 Li
atom_frac       0.74018708      0.02410078      0.57390549 Li
atom_frac       0.87308435      0.37752530      0.81049017 P
atom_frac       0.87308402      0.12247472      0.56048888 P
atom_frac       0.62308154      0.12752612      0.81048971 P
atom_frac       0.62308084      0.37247364      0.56048819 P
atom_frac       0.84290030      0.49496742      0.83977969 S
atom_frac       0.84290061      0.00503346      0.58978004 S
atom_frac       0.59290085      0.24497009      0.83978072 S
atom_frac       0.59290126      0.25503052      0.58978128 S
atom_frac       0.84290397      0.24216460      0.58749267 S
atom_frac       0.84290362      0.25783460      0.83749226 S
atom_frac       0.59290510      0.49216657      0.58749320 S
atom_frac       0.59290453      0.00783266      0.83749270 S
atom_frac       0.96141264      0.12081493      0.59250150 S
atom_frac       0.96141298      0.37918519      0.84250100 S
atom_frac       0.71140962      0.37081543      0.59250025 S
atom_frac       0.71141032      0.12918479      0.84249979 S
atom_frac       0.84675344      0.38036732      0.72063573 S
atom_frac       0.84675289      0.11963280      0.97063449 S
atom_frac       0.59675440      0.13036728      0.72063541 S
atom_frac       0.59675400      0.36963295      0.97063397 S
atom_frac       0.93645750      0.12767068      0.74918589 S
atom_frac       0.93645752      0.37232940      0.99918613 S
atom_frac       0.68645774      0.37767067      0.74918613 S
atom_frac       0.68645776      0.12232942      0.99918638 S
atom_frac       0.99556399      0.36739083      0.68253729 I
atom_frac       0.99556404      0.13260870      0.93253758 I
atom_frac       0.74556435      0.11739066      0.68253718 I
atom_frac       0.74556440      0.38260897      0.93253754 I
atom_frac       0.99707825      0.66113132      0.19648805 Li
atom_frac       0.99707798      0.83886882      0.44648785 Li
atom_frac       0.74707759      0.91113144      0.19648726 Li
atom_frac       0.74707725      0.58886867      0.44648702 Li
atom_frac       0.90777452      0.50616582      0.44113515 Li
atom_frac       0.90777460      0.99383368      0.19113531 Li
atom_frac       0.65777509      0.75616582      0.44113533 Li
atom_frac       0.65777522      0.74383354      0.19113565 Li
atom_frac       0.89593392      0.75586137      0.19081218 Li
atom_frac       0.89593386      0.74413889      0.44081199 Li
atom_frac       0.64593439      0.50586127      0.19081228 Li
atom_frac       0.64593430      0.99413912      0.44081195 Li
atom_frac       0.85312529      0.87578456      0.02549243 Li
atom_frac       0.85312526      0.62421539      0.27549230 Li
atom_frac       0.60312492      0.62578481      0.02549184 Li
atom_frac       0.60312488      0.87421513      0.27549169 Li
atom_frac       0.99182714      0.96697974      0.07574590 Li
atom_frac       0.99182702      0.53302039      0.32574592 Li
atom_frac       0.74182650      0.71698058      0.07574614 Li
atom_frac       0.74182649      0.78301965      0.32574608 Li
atom_frac       0.99018725      0.72589840      0.32390533 Li
atom_frac       0.99018733      0.77410125      0.07390526 Li
atom_frac       0.74018701      0.97589882      0.32390557 Li
atom_frac       0.74018709      0.52410079      0.07390558 Li
atom_frac       0.87308429      0.87752523      0.31049017 P
atom_frac       0.87308407      0.62247472      0.06048887 P
atom_frac       0.62308149      0.62752606      0.31048970 P
atom_frac       0.62308086      0.87247362      0.06048817 P
atom_frac       0.84290020      0.99496734      0.33977969 S
atom_frac       0.84290059      0.50503352      0.08978003 S
atom_frac       0.59290078      0.74496994      0.33978079 S
atom_frac       0.59290131      0.75503055      0.08978133 S
atom_frac       0.84290389      0.74216449      0.08749266 S
atom_frac       0.84290358      0.75783455      0.33749229 S
atom_frac       0.59290506      0.99216653      0.08749316 S
atom_frac       0.59290448      0.50783262      0.33749271 S
atom_frac       0.96141268      0.62081484      0.09250156 S
atom_frac       0.96141293      0.87918503      0.34250104 S
atom_frac       0.71140963      0.87081531      0.09250030 S
atom_frac       0.71141027      0.62918468      0.34249984 S
atom_frac       0.84675335      0.88036719      0.22063574 S
atom_frac       0.84675282      0.61963267      0.47063447 S
atom_frac       0.59675434      0.63036707      0.22063541 S
atom_frac       0.59675389      0.86963283      0.47063393 S
atom_frac       0.93645745      0.62767052      0.24918597 S
atom_frac       0.93645747      0.87232941      0.49918613 S
atom_frac       0.68645772      0.87767058      0.24918620 S
atom_frac       0.68645774      0.62232929      0.49918643 S
atom_frac       0.99556397      0.86739147      0.18253774 I
atom_frac       0.99556408      0.63260936      0.43253805 I
atom_frac       0.74556443      0.61739122      0.18253775 I
atom_frac       0.74556443      0.88260956      0.43253809 I
atom_frac       0.99707831      0.66113141      0.69648803 Li
atom_frac       0.99707804      0.83886879      0.94648785 Li
atom_frac       0.74707764      0.91113146      0.69648722 Li
atom_frac       0.74707730      0.58886861      0.94648699 Li
atom_frac       0.90777459      0.50616592      0.94113514 Li
atom_frac       0.90777469      0.99383375      0.69113531 Li
atom_frac       0.65777521      0.75616598      0.94113534 Li
atom_frac       0.65777525      0.74383362      0.69113561 Li
atom_frac       0.89593396      0.75586151      0.69081218 Li
atom_frac       0.89593393      0.74413895      0.94081199 Li
atom_frac       0.64593434      0.50586135      0.69081226 Li
atom_frac       0.64593440      0.99413918      0.94081194 Li
atom_frac       0.85312526      0.87578451      0.52549243 Li
atom_frac       0.85312527      0.62421549      0.77549223 Li
atom_frac       0.60312485      0.62578480      0.52549182 Li
atom_frac       0.60312483      0.87421527      0.77549158 Li
atom_frac       0.99182716      0.96697984      0.57574581 Li
atom_frac       0.99182705      0.53302048      0.82574583 Li
atom_frac       0.74182650      0.71698068      0.57574603 Li
atom_frac       0.74182652      0.78301974      0.82574596 Li
atom_frac       0.99018730      0.72589854      0.82390529 Li
atom_frac       0.99018735      0.77410131      0.57390528 Li
atom_frac       0.74018706      0.97589898      0.82390549 Li
atom_frac       0.74018709      0.52410082      0.57390557 Li
atom_frac       0.87308434      0.87752527      0.81049015 P
atom_frac       0.87308405      0.62247474      0.56048886 P
atom_frac       0.62308155      0.62752612      0.81048969 P
atom_frac       0.62308082      0.87247365      0.56048816 P
atom_frac       0.84290029      0.99496741      0.83977965 S
atom_frac       0.84290059      0.50503355      0.58978005 S
atom_frac       0.59290086      0.74497005      0.83978074 S
atom_frac       0.59290124      0.75503058      0.58978131 S
atom_frac       0.84290396      0.74216453      0.58749271 S
atom_frac       0.84290362      0.75783463      0.83749230 S
atom_frac       0.59290508      0.99216657      0.58749318 S
atom_frac       0.59290454      0.50783270      0.83749272 S
atom_frac       0.96141265      0.62081497      0.59250155 S
atom_frac       0.96141298      0.87918517      0.84250104 S
atom_frac       0.71140960      0.87081540      0.59250027 S
atom_frac       0.71141033      0.62918486      0.84249982 S
atom_frac       0.84675339      0.88036732      0.72063571 S
atom_frac       0.84675287      0.61963279      0.97063449 S
atom_frac       0.59675435      0.63036725      0.72063539 S
atom_frac       0.59675397      0.86963296      0.97063393 S
atom_frac       0.93645750      0.62767067      0.74918592 S
atom_frac       0.93645751      0.87232949      0.99918612 S
atom_frac       0.68645772      0.87767075      0.74918613 S
atom_frac       0.68645781      0.62232936      0.99918642 S
atom_frac       0.99556399      0.86739062      0.68253728 I
atom_frac       0.99556403      0.63260839      0.93253760 I
atom_frac       0.74556432      0.61739033      0.68253725 I
atom_frac       0.74556445      0.88260861      0.93253757 I
# 
# What follows is the current estimated Hessian matrix constructed by the BFGS algorithm.
# This is NOT the true Hessian matrix of the system.
# If you do not want this information here, switch it off using the "hessian_to_restart_geometry" keyword.
# 
trust_radius             0.2000000030
hessian_file
