# 
# This is the geometry file that corresponds to the current relaxation step.
# If you do not want this file to be written, set the "write_restart_geometry" flag to .false.
#  aims_uuid : 5C27913B-03D5-4C75-AB37-6242F3F092A7                                
# 
lattice_vector     24.67918413     -0.00989719     -0.06996937
lattice_vector     -0.13393674     14.26644242      0.10073941
lattice_vector     -7.95372409      0.00016381     22.81219382
atom_frac       0.49661455      0.17304637      0.19220800 Li
atom_frac       0.49925437      0.33382770      0.44937001 Li
atom_frac       0.25717461      0.42398656      0.19032067 Li
atom_frac       0.24884162      0.16071233      0.44994225 Li
atom_frac       0.41050583      0.00198402      0.44274012 Li
atom_frac       0.42661586      0.47748657      0.18943400 Li
atom_frac       0.14375644      0.25436329      0.44255415 Li
atom_frac       0.08679244      0.28848591      0.17870027 Li
atom_frac       0.40823995      0.26038945      0.18795033 Li
atom_frac       0.39824588      0.23692261      0.44385373 Li
atom_frac       0.15465733      0.04139485      0.18336762 Li
atom_frac       0.15772139      0.49425853      0.44076948 Li
atom_frac       0.35625454      0.36992205      0.02799222 Li
atom_frac       0.35806800      0.11913215      0.27226296 Li
atom_frac       0.10213917      0.11363009      0.02560234 Li
atom_frac       0.06378815      0.38936234      0.26631850 Li
atom_frac       0.48986588      0.44920430      0.08954630 Li
atom_frac       0.49041952      0.03396290      0.32844726 Li
atom_frac       0.24105758      0.21880220      0.07785299 Li
atom_frac       0.25158684      0.27097917      0.33358738 Li
atom_frac       0.49112642      0.22193457      0.32060177 Li
atom_frac       0.48546471      0.27200661      0.07895523 Li
atom_frac       0.25077650      0.47625339      0.34382608 Li
atom_frac       0.24482910      0.02561509      0.07138918 Li
atom_frac       0.37780930      0.37170786      0.30990317 P
atom_frac       0.37413049      0.11330164      0.06017512 P
atom_frac       0.12137302      0.12938206      0.31023219 P
atom_frac       0.12260190      0.37361671      0.06032593 P
atom_frac       0.34700206      0.48891576      0.33853669 S
atom_frac       0.34612461      0.99553966      0.09212801 S
atom_frac       0.09342918      0.24960875      0.33762876 S
atom_frac       0.09121315      0.25168059      0.08425334 S
atom_frac       0.34368523      0.23259234      0.08641602 S
atom_frac       0.34847628      0.25053235      0.33778183 S
atom_frac       0.09085689      0.48688016      0.09125118 S
atom_frac       0.09203440      0.01139498      0.34113462 S
atom_frac       0.46234206      0.11170178      0.09002673 S
atom_frac       0.46616190      0.37517456      0.34357889 S
atom_frac       0.21122359      0.37408506      0.09037874 S
atom_frac       0.21024202      0.12550909      0.34357516 S
atom_frac       0.35353821      0.37485305      0.22033141 S
atom_frac       0.34530709      0.10958129      0.46943744 S
atom_frac       0.09439955      0.12789877      0.22037370 S
atom_frac       0.09618771      0.38314581      0.47026994 S
atom_frac       0.44026919      0.12097652      0.24592943 S
atom_frac       0.43751502      0.36805944      0.50010019 S
atom_frac       0.18615844      0.12540558      0.50004027 S
atom_frac       0.49465729      0.34681691      0.17536680 S
atom_frac       0.18267513      0.37894533      0.24830532 I
atom_frac       0.49688944      0.13167837      0.43213837 I
atom_frac       0.25234876      0.11880535      0.18194645 I
atom_frac       0.24755268      0.36454792      0.43563855 I
atom_frac       0.49661453      0.17304644      0.69220808 Li
atom_frac       0.49925430      0.33382768      0.94937007 Li
atom_frac       0.25717446      0.42398662      0.69032106 Li
atom_frac       0.24884158      0.16071242      0.94994233 Li
atom_frac       0.41050580      0.00198412      0.94274021 Li
atom_frac       0.42661591      0.47748664      0.68943411 Li
atom_frac       0.14375638      0.25436344      0.94255422 Li
atom_frac       0.08679256      0.28848605      0.67870034 Li
atom_frac       0.40823993      0.26038952      0.68795041 Li
atom_frac       0.39824593      0.23692263      0.94385385 Li
atom_frac       0.15465720      0.04139482      0.68336768 Li
atom_frac       0.15772122      0.49425854      0.94076948 Li
atom_frac       0.35625450      0.36992205      0.52799211 Li
atom_frac       0.35806804      0.11913215      0.77226314 Li
atom_frac       0.10213908      0.11363009      0.52560216 Li
atom_frac       0.06378801      0.38936237      0.76631858 Li
atom_frac       0.48986583      0.44920428      0.58954630 Li
atom_frac       0.49041948      0.03396305      0.82844748 Li
atom_frac       0.24105761      0.21880215      0.57785329 Li
atom_frac       0.25158689      0.27097942      0.83358778 Li
atom_frac       0.49112642      0.22193449      0.82060200 Li
atom_frac       0.48546468      0.27200661      0.57895528 Li
atom_frac       0.25077673      0.47625364      0.84382678 Li
atom_frac       0.24482914      0.02561526      0.57138951 Li
atom_frac       0.37780933      0.37170787      0.80990327 P
atom_frac       0.37413049      0.11330166      0.56017512 P
atom_frac       0.12137293      0.12938219      0.81023228 P
atom_frac       0.12260194      0.37361674      0.56032602 P
atom_frac       0.34700212      0.48891575      0.83853686 S
atom_frac       0.34612457      0.99553967      0.59212800 S
atom_frac       0.09342910      0.24960887      0.83762888 S
atom_frac       0.09121312      0.25168057      0.58425329 S
atom_frac       0.34368523      0.23259236      0.58641605 S
atom_frac       0.34847625      0.25053243      0.83778197 S
atom_frac       0.09085688      0.48688019      0.59125119 S
atom_frac       0.09203427      0.01139512      0.84113469 S
atom_frac       0.46234207      0.11170176      0.59002676 S
atom_frac       0.46616192      0.37517460      0.84357894 S
atom_frac       0.21122365      0.37408516      0.59037898 S
atom_frac       0.21024195      0.12550935      0.84357531 S
atom_frac       0.35353811      0.37485308      0.72033150 S
atom_frac       0.34530701      0.10958140      0.96943742 S
atom_frac       0.09439954      0.12789896      0.72037380 S
atom_frac       0.09618750      0.38314590      0.97026986 S
atom_frac       0.44026920      0.12097658      0.74592958 S
atom_frac       0.43751497      0.36805954      0.00010022 S
atom_frac       0.18615832      0.12540560      0.00004014 S
atom_frac       0.49465729      0.34681692      0.67536680 S
atom_frac       0.18267506      0.37894542      0.74830592 I
atom_frac       0.49688940      0.13167786      0.93213848 I
atom_frac       0.25234858      0.11880509      0.68194678 I
atom_frac       0.24755273      0.36454736      0.93563903 I
atom_frac       0.49661454      0.67304638      0.19220797 Li
atom_frac       0.49925442      0.83382738      0.44937003 Li
atom_frac       0.25717467      0.92398696      0.19032066 Li
atom_frac       0.24884159      0.66071214      0.44994226 Li
atom_frac       0.41050571      0.50198392      0.44274010 Li
atom_frac       0.42661592      0.97748665      0.18943403 Li
atom_frac       0.14375647      0.75436326      0.44255417 Li
atom_frac       0.08679233      0.78848576      0.17870020 Li
atom_frac       0.40823993      0.76038955      0.18795030 Li
atom_frac       0.39824587      0.73692255      0.44385372 Li
atom_frac       0.15465721      0.54139499      0.18336753 Li
atom_frac       0.15772144      0.99425845      0.44076947 Li
atom_frac       0.35625454      0.86992202      0.02799220 Li
atom_frac       0.35806796      0.61913213      0.27226291 Li
atom_frac       0.10213916      0.61363004      0.02560235 Li
atom_frac       0.06378815      0.88936229      0.26631849 Li
atom_frac       0.48986590      0.94920431      0.08954629 Li
atom_frac       0.49041947      0.53396282      0.32844704 Li
atom_frac       0.24105759      0.71880216      0.07785304 Li
atom_frac       0.25158690      0.77097906      0.33358742 Li
atom_frac       0.49112636      0.72193443      0.32060179 Li
atom_frac       0.48546469      0.77200661      0.07895521 Li
atom_frac       0.25077639      0.97625316      0.34382601 Li
atom_frac       0.24482910      0.52561497      0.07138912 Li
atom_frac       0.37780934      0.87170785      0.30990319 P
atom_frac       0.37413052      0.61330164      0.06017512 P
atom_frac       0.12137298      0.62938209      0.31023220 P
atom_frac       0.12260193      0.87361673      0.06032595 P
atom_frac       0.34700205      0.98891570      0.33853672 S
atom_frac       0.34612466      0.49553967      0.09212804 S
atom_frac       0.09342911      0.74960875      0.33762878 S
atom_frac       0.09121312      0.75168059      0.08425329 S
atom_frac       0.34368524      0.73259233      0.08641604 S
atom_frac       0.34847631      0.75053231      0.33778182 S
atom_frac       0.09085695      0.98688022      0.09125120 S
atom_frac       0.09203435      0.51139502      0.34113463 S
atom_frac       0.46234209      0.61170178      0.09002672 S
atom_frac       0.46616193      0.87517457      0.34357893 S
atom_frac       0.21122363      0.87408512      0.09037874 S
atom_frac       0.21024197      0.62550911      0.34357515 S
atom_frac       0.35353819      0.87485304      0.22033141 S
atom_frac       0.34530708      0.60958130      0.46943745 S
atom_frac       0.09439946      0.62789874      0.22037371 S
atom_frac       0.09618772      0.88314580      0.47026995 S
atom_frac       0.44026913      0.62097654      0.24592932 S
atom_frac       0.43751504      0.86805940      0.50010015 S
atom_frac       0.18615844      0.62540557      0.50004032 S
atom_frac       0.49465726      0.84681691      0.17536676 S
atom_frac       0.18267504      0.87894483      0.24830524 I
atom_frac       0.49688925      0.63167796      0.43213830 I
atom_frac       0.25234867      0.61880477      0.18194643 I
atom_frac       0.24755249      0.86454741      0.43563861 I
atom_frac       0.49661449      0.67304646      0.69220806 Li
atom_frac       0.49925433      0.83382751      0.94937008 Li
atom_frac       0.25717451      0.92398702      0.69032108 Li
atom_frac       0.24884154      0.66071216      0.94994230 Li
atom_frac       0.41050574      0.50198405      0.94274022 Li
atom_frac       0.42661591      0.97748665      0.68943412 Li
atom_frac       0.14375639      0.75436340      0.94255421 Li
atom_frac       0.08679246      0.78848594      0.67870027 Li
atom_frac       0.40823993      0.76038953      0.68795041 Li
atom_frac       0.39824592      0.73692264      0.94385384 Li
atom_frac       0.15465711      0.54139492      0.68336762 Li
atom_frac       0.15772132      0.99425845      0.94076948 Li
atom_frac       0.35625450      0.86992202      0.52799208 Li
atom_frac       0.35806802      0.61913212      0.77226310 Li
atom_frac       0.10213912      0.61363001      0.52560225 Li
atom_frac       0.06378804      0.88936231      0.76631857 Li
atom_frac       0.48986585      0.94920428      0.58954627 Li
atom_frac       0.49041947      0.53396298      0.82844741 Li
atom_frac       0.24105760      0.71880211      0.57785338 Li
atom_frac       0.25158694      0.77097927      0.83358773 Li
atom_frac       0.49112639      0.72193447      0.82060202 Li
atom_frac       0.48546466      0.77200663      0.57895528 Li
atom_frac       0.25077662      0.97625345      0.84382672 Li
atom_frac       0.24482914      0.52561514      0.57138948 Li
atom_frac       0.37780935      0.87170786      0.80990328 P
atom_frac       0.37413050      0.61330165      0.56017513 P
atom_frac       0.12137292      0.62938219      0.81023227 P
atom_frac       0.12260196      0.87361675      0.56032603 P
atom_frac       0.34700208      0.98891570      0.83853685 S
atom_frac       0.34612460      0.49553967      0.59212803 S
atom_frac       0.09342903      0.74960882      0.83762887 S
atom_frac       0.09121311      0.75168058      0.58425326 S
atom_frac       0.34368523      0.73259235      0.58641605 S
atom_frac       0.34847629      0.75053239      0.83778195 S
atom_frac       0.09085693      0.98688029      0.59125117 S
atom_frac       0.09203423      0.51139516      0.84113468 S
atom_frac       0.46234208      0.61170178      0.59002674 S
atom_frac       0.46616194      0.87517464      0.84357896 S
atom_frac       0.21122368      0.87408526      0.59037901 S
atom_frac       0.21024192      0.62550935      0.84357526 S
atom_frac       0.35353809      0.87485308      0.72033149 S
atom_frac       0.34530702      0.60958141      0.96943743 S
atom_frac       0.09439946      0.62789893      0.72037378 S
atom_frac       0.09618753      0.88314590      0.97026988 S
atom_frac       0.44026918      0.62097657      0.74592956 S
atom_frac       0.43751499      0.86805956      0.00010020 S
atom_frac       0.18615830      0.62540560      0.00004017 S
atom_frac       0.49465725      0.84681696      0.67536677 S
atom_frac       0.18267497      0.87894482      0.74830584 I
atom_frac       0.49688907      0.63167764      0.93213839 I
atom_frac       0.25234855      0.61880467      0.68194670 I
atom_frac       0.24755243      0.86454693      0.93563892 I
atom_frac       0.99661459      0.17304627      0.19220795 Li
atom_frac       0.99925443      0.33382771      0.44937000 Li
atom_frac       0.75717472      0.42398658      0.19032057 Li
atom_frac       0.74884164      0.16071223      0.44994225 Li
atom_frac       0.91050594      0.00198407      0.44274010 Li
atom_frac       0.92661590      0.47748668      0.18943400 Li
atom_frac       0.64375650      0.25436337      0.44255413 Li
atom_frac       0.58679249      0.28848595      0.17870027 Li
atom_frac       0.90823988      0.26038945      0.18795025 Li
atom_frac       0.89824595      0.23692257      0.44385372 Li
atom_frac       0.65465740      0.04139494      0.18336762 Li
atom_frac       0.65772142      0.49425842      0.44076945 Li
atom_frac       0.85625466      0.36992204      0.02799228 Li
atom_frac       0.85806811      0.11913212      0.27226306 Li
atom_frac       0.60213912      0.11363009      0.02560229 Li
atom_frac       0.56378815      0.38936231      0.26631851 Li
atom_frac       0.98986588      0.44920428      0.08954631 Li
atom_frac       0.99041953      0.03396289      0.32844711 Li
atom_frac       0.74105762      0.21880216      0.07785298 Li
atom_frac       0.75158696      0.27097902      0.33358747 Li
atom_frac       0.99112645      0.22193449      0.32060180 Li
atom_frac       0.98546473      0.27200663      0.07895523 Li
atom_frac       0.75077656      0.47625329      0.34382605 Li
atom_frac       0.74482914      0.02561513      0.07138916 Li
atom_frac       0.87780936      0.37170785      0.30990317 P
atom_frac       0.87413053      0.11330164      0.06017510 P
atom_frac       0.62137301      0.12938204      0.31023216 P
atom_frac       0.62260195      0.37361675      0.06032592 P
atom_frac       0.84700216      0.48891576      0.33853673 S
atom_frac       0.84612462      0.99553965      0.09212797 S
atom_frac       0.59342918      0.24960877      0.33762875 S
atom_frac       0.59121315      0.25168063      0.08425330 S
atom_frac       0.84368525      0.23259232      0.08641601 S
atom_frac       0.84847637      0.25053230      0.33778185 S
atom_frac       0.59085696      0.48688020      0.09125120 S
atom_frac       0.59203435      0.01139502      0.34113461 S
atom_frac       0.96234209      0.11170176      0.09002665 S
atom_frac       0.96616194      0.37517458      0.34357890 S
atom_frac       0.71122363      0.37408509      0.09037864 S
atom_frac       0.71024199      0.12550902      0.34357514 S
atom_frac       0.85353827      0.37485300      0.22033140 S
atom_frac       0.84530714      0.10958127      0.46943740 S
atom_frac       0.59439951      0.12789875      0.22037367 S
atom_frac       0.59618765      0.38314577      0.47026990 S
atom_frac       0.94026919      0.12097658      0.24592936 S
atom_frac       0.93751505      0.36805940      0.50010015 S
atom_frac       0.68615838      0.12540560      0.50004023 S
atom_frac       0.99465721      0.34681685      0.17536680 S
atom_frac       0.68267492      0.37894519      0.24830550 I
atom_frac       0.99688899      0.13167851      0.43213846 I
atom_frac       0.75234859      0.11880532      0.18194679 I
atom_frac       0.74755242      0.36454775      0.43563877 I
atom_frac       0.99661456      0.17304630      0.69220804 Li
atom_frac       0.99925433      0.33382770      0.94937004 Li
atom_frac       0.75717447      0.42398659      0.69032103 Li
atom_frac       0.74884162      0.16071233      0.94994233 Li
atom_frac       0.91050587      0.00198412      0.94274020 Li
atom_frac       0.92661589      0.47748672      0.68943406 Li
atom_frac       0.64375645      0.25436350      0.94255422 Li
atom_frac       0.58679257      0.28848603      0.67870035 Li
atom_frac       0.90823985      0.26038953      0.68795032 Li
atom_frac       0.89824595      0.23692266      0.94385384 Li
atom_frac       0.65465721      0.04139480      0.68336770 Li
atom_frac       0.65772132      0.49425844      0.94076947 Li
atom_frac       0.85625452      0.36992204      0.52799205 Li
atom_frac       0.85806808      0.11913211      0.77226315 Li
atom_frac       0.60213902      0.11363010      0.52560214 Li
atom_frac       0.56378799      0.38936232      0.76631863 Li
atom_frac       0.98986583      0.44920424      0.58954629 Li
atom_frac       0.99041952      0.03396311      0.82844752 Li
atom_frac       0.74105761      0.21880212      0.57785329 Li
atom_frac       0.75158701      0.27097932      0.83358790 Li
atom_frac       0.99112644      0.22193454      0.82060202 Li
atom_frac       0.98546470      0.27200661      0.57895527 Li
atom_frac       0.75077679      0.47625359      0.84382689 Li
atom_frac       0.74482914      0.02561527      0.57138946 Li
atom_frac       0.87780935      0.37170791      0.80990327 P
atom_frac       0.87413050      0.11330168      0.56017508 P
atom_frac       0.62137296      0.12938214      0.81023229 P
atom_frac       0.62260196      0.37361675      0.56032599 P
atom_frac       0.84700213      0.48891579      0.83853684 S
atom_frac       0.84612456      0.99553968      0.59212794 S
atom_frac       0.59342910      0.24960881      0.83762889 S
atom_frac       0.59121310      0.25168062      0.58425327 S
atom_frac       0.84368521      0.23259237      0.58641599 S
atom_frac       0.84847632      0.25053241      0.83778196 S
atom_frac       0.59085690      0.48688022      0.59125117 S
atom_frac       0.59203426      0.01139510      0.84113470 S
atom_frac       0.96234208      0.11170174      0.59002672 S
atom_frac       0.96616194      0.37517468      0.84357892 S
atom_frac       0.71122365      0.37408520      0.59037892 S
atom_frac       0.71024196      0.12550932      0.84357530 S
atom_frac       0.85353811      0.37485307      0.72033148 S
atom_frac       0.84530706      0.10958138      0.96943741 S
atom_frac       0.59439950      0.12789890      0.72037379 S
atom_frac       0.59618748      0.38314590      0.97026984 S
atom_frac       0.94026922      0.12097662      0.74592956 S
atom_frac       0.93751503      0.36805955      0.00010021 S
atom_frac       0.68615829      0.12540560      0.00004012 S
atom_frac       0.99465722      0.34681684      0.67536679 S
atom_frac       0.68267474      0.37894543      0.74830619 I
atom_frac       0.99688906      0.13167800      0.93213880 I
atom_frac       0.75234845      0.11880510      0.68194696 I
atom_frac       0.74755242      0.36454725      0.93563928 I
atom_frac       0.99661453      0.67304645      0.19220796 Li
atom_frac       0.99925448      0.83382736      0.44937003 Li
atom_frac       0.75717473      0.92398698      0.19032059 Li
atom_frac       0.74884160      0.66071203      0.44994224 Li
atom_frac       0.91050583      0.50198395      0.44274012 Li
atom_frac       0.92661591      0.97748660      0.18943402 Li
atom_frac       0.64375647      0.75436331      0.44255411 Li
atom_frac       0.58679238      0.78848581      0.17870018 Li
atom_frac       0.90823996      0.76038948      0.18795032 Li
atom_frac       0.89824595      0.73692255      0.44385373 Li
atom_frac       0.65465739      0.54139506      0.18336757 Li
atom_frac       0.65772143      0.99425844      0.44076945 Li
atom_frac       0.85625466      0.86992201      0.02799224 Li
atom_frac       0.85806811      0.61913212      0.27226301 Li
atom_frac       0.60213908      0.61363003      0.02560225 Li
atom_frac       0.56378813      0.88936227      0.26631850 Li
atom_frac       0.98986591      0.94920429      0.08954629 Li
atom_frac       0.99041952      0.53396288      0.32844715 Li
atom_frac       0.74105764      0.71880215      0.07785300 Li
atom_frac       0.75158699      0.77097895      0.33358743 Li
atom_frac       0.99112642      0.72193441      0.32060187 Li
atom_frac       0.98546470      0.77200664      0.07895525 Li
atom_frac       0.75077644      0.97625314      0.34382597 Li
atom_frac       0.74482916      0.52561502      0.07138907 Li
atom_frac       0.87780939      0.87170783      0.30990319 P
atom_frac       0.87413053      0.61330165      0.06017509 P
atom_frac       0.62137302      0.62938204      0.31023215 P
atom_frac       0.62260196      0.87361674      0.06032594 P
atom_frac       0.84700211      0.98891568      0.33853673 S
atom_frac       0.84612469      0.49553968      0.09212802 S
atom_frac       0.59342911      0.74960869      0.33762872 S
atom_frac       0.59121312      0.75168059      0.08425324 S
atom_frac       0.84368528      0.73259234      0.08641603 S
atom_frac       0.84847641      0.75053226      0.33778184 S
atom_frac       0.59085698      0.98688021      0.09125120 S
atom_frac       0.59203435      0.51139501      0.34113460 S
atom_frac       0.96234210      0.61170178      0.09002668 S
atom_frac       0.96616198      0.87517455      0.34357894 S
atom_frac       0.71122366      0.87408513      0.09037868 S
atom_frac       0.71024199      0.62550903      0.34357513 S
atom_frac       0.85353821      0.87485296      0.22033141 S
atom_frac       0.84530712      0.60958132      0.46943741 S
atom_frac       0.59439946      0.62789868      0.22037366 S
atom_frac       0.59618767      0.88314577      0.47026991 S
atom_frac       0.94026921      0.62097656      0.24592939 S
atom_frac       0.93751509      0.86805944      0.50010012 S
atom_frac       0.68615835      0.62540556      0.50004024 S
atom_frac       0.99465722      0.84681694      0.17536677 S
atom_frac       0.68267483      0.87894483      0.24830538 I
atom_frac       0.99688898      0.63167789      0.43213858 I
atom_frac       0.75234849      0.61880481      0.18194662 I
atom_frac       0.74755220      0.86454738      0.43563882 I
atom_frac       0.99661452      0.67304637      0.69220803 Li
atom_frac       0.99925437      0.83382747      0.94937005 Li
atom_frac       0.75717451      0.92398701      0.69032103 Li
atom_frac       0.74884160      0.66071220      0.94994232 Li
atom_frac       0.91050581      0.50198405      0.94274020 Li
atom_frac       0.92661588      0.97748669      0.68943407 Li
atom_frac       0.64375646      0.75436348      0.94255419 Li
atom_frac       0.58679245      0.78848590      0.67870025 Li
atom_frac       0.90823987      0.76038957      0.68795034 Li
atom_frac       0.89824596      0.73692263      0.94385383 Li
atom_frac       0.65465715      0.54139486      0.68336765 Li
atom_frac       0.65772138      0.99425840      0.94076947 Li
atom_frac       0.85625458      0.86992202      0.52799209 Li
atom_frac       0.85806805      0.61913211      0.77226310 Li
atom_frac       0.60213894      0.61363000      0.52560207 Li
atom_frac       0.56378797      0.88936229      0.76631861 Li
atom_frac       0.98986589      0.94920425      0.58954628 Li
atom_frac       0.99041947      0.53396308      0.82844740 Li
atom_frac       0.74105761      0.71880209      0.57785330 Li
atom_frac       0.75158704      0.77097924      0.83358784 Li
atom_frac       0.99112640      0.72193444      0.82060207 Li
atom_frac       0.98546469      0.77200663      0.57895526 Li
atom_frac       0.75077666      0.97625342      0.84382672 Li
atom_frac       0.74482913      0.52561520      0.57138943 Li
atom_frac       0.87780935      0.87170789      0.80990327 P
atom_frac       0.87413050      0.61330162      0.56017509 P
atom_frac       0.62137295      0.62938216      0.81023227 P
atom_frac       0.62260196      0.87361675      0.56032601 P
atom_frac       0.84700210      0.98891574      0.83853685 S
atom_frac       0.84612457      0.49553964      0.59212796 S
atom_frac       0.59342905      0.74960878      0.83762887 S
atom_frac       0.59121305      0.75168057      0.58425318 S
atom_frac       0.84368522      0.73259233      0.58641599 S
atom_frac       0.84847636      0.75053234      0.83778194 S
atom_frac       0.59085693      0.98688027      0.59125118 S
atom_frac       0.59203425      0.51139515      0.84113469 S
atom_frac       0.96234207      0.61170177      0.59002674 S
atom_frac       0.96616194      0.87517467      0.84357893 S
atom_frac       0.71122366      0.87408524      0.59037895 S
atom_frac       0.71024195      0.62550934      0.84357528 S
atom_frac       0.85353808      0.87485307      0.72033148 S
atom_frac       0.84530708      0.60958140      0.96943739 S
atom_frac       0.59439944      0.62789887      0.72037377 S
atom_frac       0.59618752      0.88314590      0.97026985 S
atom_frac       0.94026919      0.62097666      0.74592953 S
atom_frac       0.93751506      0.86805954      0.00010019 S
atom_frac       0.68615827      0.62540561      0.00004013 S
atom_frac       0.99465720      0.84681690      0.67536677 S
atom_frac       0.68267464      0.87894476      0.74830593 I
atom_frac       0.99688885      0.63167759      0.93213871 I
atom_frac       0.75234834      0.61880447      0.68194687 I
atom_frac       0.74755222      0.86454703      0.93563920 I
# 
# What follows is the current estimated Hessian matrix constructed by the BFGS algorithm.
# This is NOT the true Hessian matrix of the system.
# If you do not want this information here, switch it off using the "hessian_to_restart_geometry" keyword.
# 
trust_radius             0.2000000030
hessian_file
