# 
# This is the geometry file that corresponds to the current relaxation step.
# If you do not want this file to be written, set the "write_restart_geometry" flag to .false.
#  aims_uuid : A317399B-4F7E-4949-AB51-59F848331059                                
# 
lattice_vector     19.61161814     -0.06571470     -0.27771850
lattice_vector     -0.06849491     19.54637642     -0.16388105
lattice_vector     -0.28143163     -0.16548907     19.92442122
atom_frac       0.09159469      0.09875040      0.01775930 Li
atom_frac       0.15993056      0.07540144      0.22811876 Li
atom_frac       0.08674943      0.23382560      0.16383099 Li
atom_frac       0.07139323      0.94726802      0.05534531 Li
atom_frac       0.94408740      0.05155004      0.06298446 Li
atom_frac       0.23989846      0.16496682      0.09621717 Li
atom_frac       0.09746231      0.37223935      0.26559232 Li
atom_frac       0.17324043      0.34100515      0.48264028 Li
atom_frac       0.10745750      0.49913889      0.39661613 Li
atom_frac       0.10083761      0.26513367      0.34901084 Li
atom_frac       0.01514406      0.40426799      0.40699664 Li
atom_frac       0.23763722      0.41389972      0.33730577 Li
atom_frac       0.35931409      0.09958788      0.26641305 Li
atom_frac       0.35379758      0.17116183      0.48490446 Li
atom_frac       0.40943492      0.23690323      0.34172225 Li
atom_frac       0.40491558      0.01424761      0.40637102 Li
atom_frac       0.26359409      0.10334366      0.35950806 Li
atom_frac       0.49727374      0.11047928      0.40066132 Li
atom_frac       0.36473687      0.36541218      0.01350310 Li
atom_frac       0.38987142      0.35726457      0.24353931 Li
atom_frac       0.33706761      0.49038272      0.16312490 Li
atom_frac       0.37241977      0.26155213      0.11821434 Li
atom_frac       0.26262770      0.35402949      0.11607496 Li
atom_frac       0.49438282      0.36126134      0.15066752 Li
atom_frac       0.25432791      0.00621791      0.00307083 P
atom_frac       0.24957371      0.25128288      0.25568336 P
atom_frac       0.00321577      0.00952992      0.24642280 P
atom_frac       0.00888388      0.25466209      0.00272122 P
atom_frac       0.07481317      0.19860377      0.44568053 S
atom_frac       0.45646551      0.19067275      0.06480363 S
atom_frac       0.19354959      0.07313270      0.45060388 S
atom_frac       0.31786239      0.06854808      0.06398211 S
atom_frac       0.06964402      0.45652087      0.18514436 S
atom_frac       0.44665202      0.44692716      0.30683079 S
atom_frac       0.18680107      0.31270803      0.19759903 S
atom_frac       0.31002927      0.31135479      0.32039594 S
atom_frac       0.12932294      0.38058844      0.37827991 S
atom_frac       0.31309578      0.19266636      0.19681663 S
atom_frac       0.18691786      0.18603616      0.30553450 S
atom_frac       0.43907931      0.06627760      0.18605157 S
atom_frac       0.06443313      0.07388086      0.30493552 S
atom_frac       0.38006064      0.12853812      0.37860991 S
atom_frac       0.30950931      0.44504222      0.43951877 S
atom_frac       0.19742783      0.44480615      0.06400895 S
atom_frac       0.44383716      0.30950302      0.44101392 S
atom_frac       0.07043306      0.31788682      0.06463517 S
atom_frac       0.37888111      0.38093511      0.12978272 S
atom_frac       0.01155295      0.01117118      0.97602799 S
atom_frac       0.13200760      0.12983516      0.12569672 Cl
atom_frac       0.00743584      0.28047049      0.24837928 Cl
atom_frac       0.26253022      0.01521704      0.26207546 Cl
atom_frac       0.27368519      0.26241431      0.02728814 Cl
atom_frac       0.09159469      0.09875040      0.51775930 Li
atom_frac       0.15993056      0.07540145      0.72811876 Li
atom_frac       0.08674943      0.23382560      0.66383099 Li
atom_frac       0.07139323      0.94726802      0.55534531 Li
atom_frac       0.94408741      0.05155004      0.56298446 Li
atom_frac       0.23989846      0.16496683      0.59621717 Li
atom_frac       0.09746231      0.37223935      0.76559232 Li
atom_frac       0.17324043      0.34100515      0.98264028 Li
atom_frac       0.10745750      0.49913889      0.89661613 Li
atom_frac       0.10083761      0.26513367      0.84901084 Li
atom_frac       0.01514406      0.40426799      0.90699664 Li
atom_frac       0.23763722      0.41389972      0.83730577 Li
atom_frac       0.35931409      0.09958788      0.76641305 Li
atom_frac       0.35379758      0.17116183      0.98490446 Li
atom_frac       0.40943492      0.23690323      0.84172225 Li
atom_frac       0.40491558      0.01424761      0.90637102 Li
atom_frac       0.26359409      0.10334366      0.85950806 Li
atom_frac       0.49727374      0.11047928      0.90066132 Li
atom_frac       0.36473687      0.36541218      0.51350310 Li
atom_frac       0.38987142      0.35726457      0.74353931 Li
atom_frac       0.33706761      0.49038272      0.66312490 Li
atom_frac       0.37241977      0.26155213      0.61821434 Li
atom_frac       0.26262770      0.35402949      0.61607497 Li
atom_frac       0.49438282      0.36126134      0.65066752 Li
atom_frac       0.25432791      0.00621791      0.50307083 P
atom_frac       0.24957371      0.25128288      0.75568336 P
atom_frac       0.00321577      0.00952992      0.74642280 P
atom_frac       0.00888388      0.25466209      0.50272122 P
atom_frac       0.07481317      0.19860377      0.94568053 S
atom_frac       0.45646551      0.19067275      0.56480362 S
atom_frac       0.19354959      0.07313270      0.95060388 S
atom_frac       0.31786240      0.06854808      0.56398211 S
atom_frac       0.06964402      0.45652087      0.68514436 S
atom_frac       0.44665202      0.44692717      0.80683079 S
atom_frac       0.18680107      0.31270803      0.69759903 S
atom_frac       0.31002927      0.31135478      0.82039594 S
atom_frac       0.12932294      0.38058845      0.87827991 S
atom_frac       0.31309578      0.19266636      0.69681664 S
atom_frac       0.18691786      0.18603617      0.80553450 S
atom_frac       0.43907931      0.06627760      0.68605157 S
atom_frac       0.06443313      0.07388086      0.80493552 S
atom_frac       0.38006064      0.12853812      0.87860991 S
atom_frac       0.30950931      0.44504222      0.93951877 S
atom_frac       0.19742783      0.44480616      0.56400895 S
atom_frac       0.44383716      0.30950302      0.94101392 S
atom_frac       0.07043306      0.31788682      0.56463517 S
atom_frac       0.37888111      0.38093511      0.62978272 S
atom_frac       0.01155295      0.01117118      0.47602799 S
atom_frac       0.13200760      0.12983516      0.62569672 Cl
atom_frac       0.00743584      0.28047049      0.74837928 Cl
atom_frac       0.26253022      0.01521704      0.76207546 Cl
atom_frac       0.27368519      0.26241431      0.52728814 Cl
atom_frac       0.09159469      0.59875040      0.01775930 Li
atom_frac       0.15993056      0.57540145      0.22811876 Li
atom_frac       0.08674943      0.73382560      0.16383099 Li
atom_frac       0.07139323      0.44726801      0.05534531 Li
atom_frac       0.94408741      0.55155004      0.06298446 Li
atom_frac       0.23989846      0.66496683      0.09621717 Li
atom_frac       0.09746231      0.87223935      0.26559232 Li
atom_frac       0.17324044      0.84100515      0.48264028 Li
atom_frac       0.10745750      0.99913889      0.39661613 Li
atom_frac       0.10083761      0.76513367      0.34901084 Li
atom_frac       0.01514406      0.90426799      0.40699664 Li
atom_frac       0.23763722      0.91389972      0.33730577 Li
atom_frac       0.35931409      0.59958788      0.26641305 Li
atom_frac       0.35379759      0.67116183      0.48490446 Li
atom_frac       0.40943492      0.73690323      0.34172225 Li
atom_frac       0.40491558      0.51424761      0.40637102 Li
atom_frac       0.26359409      0.60334366      0.35950806 Li
atom_frac       0.49727375      0.61047928      0.40066132 Li
atom_frac       0.36473687      0.86541218      0.01350310 Li
atom_frac       0.38987143      0.85726457      0.24353931 Li
atom_frac       0.33706761      0.99038272      0.16312490 Li
atom_frac       0.37241977      0.76155213      0.11821434 Li
atom_frac       0.26262770      0.85402949      0.11607496 Li
atom_frac       0.49438282      0.86126134      0.15066752 Li
atom_frac       0.25432791      0.50621791      0.00307083 P
atom_frac       0.24957371      0.75128289      0.25568336 P
atom_frac       0.00321577      0.50952992      0.24642280 P
atom_frac       0.00888388      0.75466209      0.00272123 P
atom_frac       0.07481318      0.69860377      0.44568053 S
atom_frac       0.45646551      0.69067275      0.06480363 S
atom_frac       0.19354959      0.57313270      0.45060388 S
atom_frac       0.31786239      0.56854808      0.06398211 S
atom_frac       0.06964402      0.95652088      0.18514436 S
atom_frac       0.44665202      0.94692717      0.30683079 S
atom_frac       0.18680107      0.81270803      0.19759903 S
atom_frac       0.31002927      0.81135479      0.32039594 S
atom_frac       0.12932294      0.88058845      0.37827991 S
atom_frac       0.31309578      0.69266636      0.19681664 S
atom_frac       0.18691786      0.68603617      0.30553450 S
atom_frac       0.43907931      0.56627761      0.18605157 S
atom_frac       0.06443313      0.57388086      0.30493552 S
atom_frac       0.38006064      0.62853812      0.37860991 S
atom_frac       0.30950931      0.94504222      0.43951877 S
atom_frac       0.19742783      0.94480616      0.06400895 S
atom_frac       0.44383717      0.80950302      0.44101392 S
atom_frac       0.07043306      0.81788682      0.06463517 S
atom_frac       0.37888111      0.88093511      0.12978272 S
atom_frac       0.01155295      0.51117118      0.97602799 S
atom_frac       0.13200760      0.62983516      0.12569672 Cl
atom_frac       0.00743584      0.78047049      0.24837928 Cl
atom_frac       0.26253022      0.51521704      0.26207546 Cl
atom_frac       0.27368520      0.76241431      0.02728814 Cl
atom_frac       0.09159469      0.59875040      0.51775930 Li
atom_frac       0.15993056      0.57540145      0.72811876 Li
atom_frac       0.08674943      0.73382560      0.66383099 Li
atom_frac       0.07139323      0.44726802      0.55534531 Li
atom_frac       0.94408741      0.55155004      0.56298446 Li
atom_frac       0.23989846      0.66496683      0.59621717 Li
atom_frac       0.09746231      0.87223935      0.76559232 Li
atom_frac       0.17324044      0.84100515      0.98264028 Li
atom_frac       0.10745750      0.99913889      0.89661613 Li
atom_frac       0.10083762      0.76513367      0.84901084 Li
atom_frac       0.01514406      0.90426799      0.90699664 Li
atom_frac       0.23763722      0.91389972      0.83730577 Li
atom_frac       0.35931409      0.59958788      0.76641305 Li
atom_frac       0.35379759      0.67116183      0.98490446 Li
atom_frac       0.40943492      0.73690323      0.84172225 Li
atom_frac       0.40491558      0.51424761      0.90637102 Li
atom_frac       0.26359409      0.60334366      0.85950806 Li
atom_frac       0.49727375      0.61047928      0.90066132 Li
atom_frac       0.36473687      0.86541218      0.51350310 Li
atom_frac       0.38987143      0.85726457      0.74353931 Li
atom_frac       0.33706761      0.99038272      0.66312490 Li
atom_frac       0.37241977      0.76155213      0.61821434 Li
atom_frac       0.26262770      0.85402949      0.61607497 Li
atom_frac       0.49438282      0.86126135      0.65066752 Li
atom_frac       0.25432791      0.50621791      0.50307083 P
atom_frac       0.24957372      0.75128289      0.75568336 P
atom_frac       0.00321577      0.50952992      0.74642280 P
atom_frac       0.00888388      0.75466209      0.50272122 P
atom_frac       0.07481318      0.69860377      0.94568053 S
atom_frac       0.45646551      0.69067275      0.56480362 S
atom_frac       0.19354960      0.57313270      0.95060388 S
atom_frac       0.31786240      0.56854808      0.56398212 S
atom_frac       0.06964402      0.95652088      0.68514436 S
atom_frac       0.44665202      0.94692717      0.80683079 S
atom_frac       0.18680107      0.81270803      0.69759903 S
atom_frac       0.31002927      0.81135479      0.82039594 S
atom_frac       0.12932294      0.88058845      0.87827991 S
atom_frac       0.31309578      0.69266636      0.69681664 S
atom_frac       0.18691787      0.68603617      0.80553450 S
atom_frac       0.43907931      0.56627761      0.68605157 S
atom_frac       0.06443313      0.57388086      0.80493552 S
atom_frac       0.38006064      0.62853812      0.87860991 S
atom_frac       0.30950931      0.94504222      0.93951877 S
atom_frac       0.19742783      0.94480616      0.56400895 S
atom_frac       0.44383717      0.80950302      0.94101392 S
atom_frac       0.07043306      0.81788682      0.56463517 S
atom_frac       0.37888111      0.88093511      0.62978272 S
atom_frac       0.01155295      0.51117118      0.47602799 S
atom_frac       0.13200760      0.62983516      0.62569672 Cl
atom_frac       0.00743584      0.78047050      0.74837928 Cl
atom_frac       0.26253022      0.51521704      0.76207546 Cl
atom_frac       0.27368520      0.76241431      0.52728814 Cl
atom_frac       0.59159469      0.09875040      0.01775930 Li
atom_frac       0.65993056      0.07540145      0.22811876 Li
atom_frac       0.58674943      0.23382560      0.16383099 Li
atom_frac       0.57139323      0.94726802      0.05534531 Li
atom_frac       0.44408741      0.05155004      0.06298446 Li
atom_frac       0.73989845      0.16496683      0.09621717 Li
atom_frac       0.59746231      0.37223935      0.26559232 Li
atom_frac       0.67324043      0.34100515      0.48264028 Li
atom_frac       0.60745750      0.49913889      0.39661613 Li
atom_frac       0.60083761      0.26513367      0.34901084 Li
atom_frac       0.51514406      0.40426799      0.40699664 Li
atom_frac       0.73763722      0.41389972      0.33730577 Li
atom_frac       0.85931409      0.09958788      0.26641305 Li
atom_frac       0.85379758      0.17116183      0.48490446 Li
atom_frac       0.90943492      0.23690323      0.34172225 Li
atom_frac       0.90491558      0.01424761      0.40637102 Li
atom_frac       0.76359409      0.10334366      0.35950806 Li
atom_frac       0.99727374      0.11047927      0.40066131 Li
atom_frac       0.86473687      0.36541218      0.01350310 Li
atom_frac       0.88987142      0.35726457      0.24353931 Li
atom_frac       0.83706761      0.49038272      0.16312490 Li
atom_frac       0.87241977      0.26155213      0.11821434 Li
atom_frac       0.76262769      0.35402949      0.11607497 Li
atom_frac       0.99438282      0.36126134      0.15066752 Li
atom_frac       0.75432791      0.00621792      0.00307083 P
atom_frac       0.74957371      0.25128289      0.25568336 P
atom_frac       0.50321577      0.00952992      0.24642280 P
atom_frac       0.50888388      0.25466209      0.00272122 P
atom_frac       0.57481317      0.19860377      0.44568053 S
atom_frac       0.95646551      0.19067275      0.06480363 S
atom_frac       0.69354959      0.07313270      0.45060388 S
atom_frac       0.81786239      0.06854808      0.06398212 S
atom_frac       0.56964402      0.45652088      0.18514436 S
atom_frac       0.94665202      0.44692717      0.30683079 S
atom_frac       0.68680107      0.31270803      0.19759903 S
atom_frac       0.81002927      0.31135479      0.32039594 S
atom_frac       0.62932293      0.38058845      0.37827991 S
atom_frac       0.81309577      0.19266636      0.19681664 S
atom_frac       0.68691786      0.18603617      0.30553450 S
atom_frac       0.93907931      0.06627760      0.18605157 S
atom_frac       0.56443312      0.07388086      0.30493552 S
atom_frac       0.88006064      0.12853812      0.37860991 S
atom_frac       0.80950930      0.44504222      0.43951877 S
atom_frac       0.69742783      0.44480616      0.06400895 S
atom_frac       0.94383716      0.30950302      0.44101392 S
atom_frac       0.57043306      0.31788682      0.06463517 S
atom_frac       0.87888110      0.38093511      0.12978272 S
atom_frac       0.51155295      0.01117118      0.97602799 S
atom_frac       0.63200760      0.12983516      0.12569672 Cl
atom_frac       0.50743584      0.28047049      0.24837928 Cl
atom_frac       0.76253022      0.01521705      0.26207546 Cl
atom_frac       0.77368519      0.26241431      0.02728814 Cl
atom_frac       0.59159469      0.09875040      0.51775930 Li
atom_frac       0.65993056      0.07540145      0.72811876 Li
atom_frac       0.58674943      0.23382560      0.66383099 Li
atom_frac       0.57139323      0.94726802      0.55534531 Li
atom_frac       0.44408741      0.05155004      0.56298446 Li
atom_frac       0.73989845      0.16496683      0.59621717 Li
atom_frac       0.59746231      0.37223935      0.76559233 Li
atom_frac       0.67324043      0.34100515      0.98264028 Li
atom_frac       0.60745750      0.49913889      0.89661613 Li
atom_frac       0.60083761      0.26513367      0.84901084 Li
atom_frac       0.51514406      0.40426800      0.90699664 Li
atom_frac       0.73763722      0.41389972      0.83730577 Li
atom_frac       0.85931409      0.09958788      0.76641305 Li
atom_frac       0.85379758      0.17116183      0.98490446 Li
atom_frac       0.90943492      0.23690323      0.84172225 Li
atom_frac       0.90491558      0.01424761      0.90637102 Li
atom_frac       0.76359409      0.10334366      0.85950806 Li
atom_frac       0.99727374      0.11047928      0.90066132 Li
atom_frac       0.86473687      0.36541219      0.51350310 Li
atom_frac       0.88987142      0.35726457      0.74353931 Li
atom_frac       0.83706761      0.49038272      0.66312490 Li
atom_frac       0.87241977      0.26155213      0.61821434 Li
atom_frac       0.76262769      0.35402950      0.61607497 Li
atom_frac       0.99438282      0.36126134      0.65066752 Li
atom_frac       0.75432791      0.00621792      0.50307083 P
atom_frac       0.74957371      0.25128289      0.75568336 P
atom_frac       0.50321577      0.00952992      0.74642280 P
atom_frac       0.50888388      0.25466209      0.50272122 P
atom_frac       0.57481317      0.19860377      0.94568053 S
atom_frac       0.95646551      0.19067275      0.56480362 S
atom_frac       0.69354959      0.07313270      0.95060388 S
atom_frac       0.81786239      0.06854808      0.56398212 S
atom_frac       0.56964402      0.45652088      0.68514436 S
atom_frac       0.94665202      0.44692717      0.80683079 S
atom_frac       0.68680107      0.31270803      0.69759904 S
atom_frac       0.81002927      0.31135479      0.82039594 S
atom_frac       0.62932294      0.38058845      0.87827992 S
atom_frac       0.81309577      0.19266636      0.69681664 S
atom_frac       0.68691786      0.18603617      0.80553450 S
atom_frac       0.93907931      0.06627761      0.68605157 S
atom_frac       0.56443312      0.07388086      0.80493553 S
atom_frac       0.88006064      0.12853812      0.87860991 S
atom_frac       0.80950930      0.44504222      0.93951877 S
atom_frac       0.69742783      0.44480616      0.56400895 S
atom_frac       0.94383716      0.30950302      0.94101392 S
atom_frac       0.57043306      0.31788682      0.56463517 S
atom_frac       0.87888111      0.38093511      0.62978272 S
atom_frac       0.51155295      0.01117118      0.47602799 S
atom_frac       0.63200760      0.12983516      0.62569672 Cl
atom_frac       0.50743584      0.28047050      0.74837928 Cl
atom_frac       0.76253022      0.01521705      0.76207546 Cl
atom_frac       0.77368519      0.26241431      0.52728814 Cl
atom_frac       0.59159469      0.59875040      0.01775931 Li
atom_frac       0.65993056      0.57540145      0.22811876 Li
atom_frac       0.58674943      0.73382561      0.16383100 Li
atom_frac       0.57139323      0.44726802      0.05534531 Li
atom_frac       0.44408741      0.55155004      0.06298446 Li
atom_frac       0.73989846      0.66496683      0.09621717 Li
atom_frac       0.59746231      0.87223936      0.26559233 Li
atom_frac       0.67324043      0.84100515      0.48264028 Li
atom_frac       0.60745750      0.99913889      0.39661613 Li
atom_frac       0.60083761      0.76513367      0.34901084 Li
atom_frac       0.51514406      0.90426799      0.40699664 Li
atom_frac       0.73763722      0.91389972      0.33730577 Li
atom_frac       0.85931409      0.59958788      0.26641305 Li
atom_frac       0.85379758      0.67116183      0.48490446 Li
atom_frac       0.90943492      0.73690323      0.34172225 Li
atom_frac       0.90491558      0.51424761      0.40637102 Li
atom_frac       0.76359409      0.60334366      0.35950806 Li
atom_frac       0.99727375      0.61047928      0.40066132 Li
atom_frac       0.86473687      0.86541219      0.01350310 Li
atom_frac       0.88987142      0.85726457      0.24353931 Li
atom_frac       0.83706761      0.99038272      0.16312490 Li
atom_frac       0.87241977      0.76155213      0.11821434 Li
atom_frac       0.76262770      0.85402950      0.11607497 Li
atom_frac       0.99438282      0.86126134      0.15066752 Li
atom_frac       0.75432790      0.50621792      0.00307083 P
atom_frac       0.74957371      0.75128289      0.25568336 P
atom_frac       0.50321577      0.50952992      0.24642280 P
atom_frac       0.50888388      0.75466209      0.00272123 P
atom_frac       0.57481318      0.69860377      0.44568053 S
atom_frac       0.95646551      0.69067275      0.06480363 S
atom_frac       0.69354959      0.57313270      0.45060388 S
atom_frac       0.81786239      0.56854808      0.06398212 S
atom_frac       0.56964402      0.95652088      0.18514436 S
atom_frac       0.94665202      0.94692717      0.30683079 S
atom_frac       0.68680107      0.81270803      0.19759904 S
atom_frac       0.81002927      0.81135479      0.32039594 S
atom_frac       0.62932294      0.88058845      0.37827992 S
atom_frac       0.81309578      0.69266637      0.19681664 S
atom_frac       0.68691786      0.68603617      0.30553450 S
atom_frac       0.93907931      0.56627761      0.18605157 S
atom_frac       0.56443312      0.57388086      0.30493552 S
atom_frac       0.88006064      0.62853812      0.37860991 S
atom_frac       0.80950930      0.94504222      0.43951877 S
atom_frac       0.69742783      0.94480616      0.06400895 S
atom_frac       0.94383716      0.80950302      0.44101393 S
atom_frac       0.57043306      0.81788682      0.06463517 S
atom_frac       0.87888111      0.88093511      0.12978272 S
atom_frac       0.51155295      0.51117119      0.97602799 S
atom_frac       0.63200760      0.62983516      0.12569672 Cl
atom_frac       0.50743584      0.78047050      0.24837928 Cl
atom_frac       0.76253022      0.51521705      0.26207546 Cl
atom_frac       0.77368519      0.76241431      0.02728814 Cl
atom_frac       0.59159469      0.59875040      0.51775931 Li
atom_frac       0.65993056      0.57540145      0.72811876 Li
atom_frac       0.58674943      0.73382561      0.66383100 Li
atom_frac       0.57139323      0.44726802      0.55534531 Li
atom_frac       0.44408741      0.55155004      0.56298446 Li
atom_frac       0.73989846      0.66496683      0.59621717 Li
atom_frac       0.59746231      0.87223936      0.76559233 Li
atom_frac       0.67324043      0.84100515      0.98264028 Li
atom_frac       0.60745750      0.99913889      0.89661613 Li
atom_frac       0.60083761      0.76513367      0.84901084 Li
atom_frac       0.51514406      0.90426799      0.90699664 Li
atom_frac       0.73763722      0.91389972      0.83730577 Li
atom_frac       0.85931409      0.59958788      0.76641305 Li
atom_frac       0.85379758      0.67116183      0.98490446 Li
atom_frac       0.90943492      0.73690323      0.84172225 Li
atom_frac       0.90491558      0.51424761      0.90637102 Li
atom_frac       0.76359409      0.60334367      0.85950806 Li
atom_frac       0.99727375      0.61047928      0.90066132 Li
atom_frac       0.86473687      0.86541219      0.51350311 Li
atom_frac       0.88987142      0.85726457      0.74353931 Li
atom_frac       0.83706761      0.99038272      0.66312490 Li
atom_frac       0.87241977      0.76155213      0.61821434 Li
atom_frac       0.76262770      0.85402950      0.61607497 Li
atom_frac       0.99438282      0.86126134      0.65066752 Li
atom_frac       0.75432791      0.50621792      0.50307083 P
atom_frac       0.74957372      0.75128289      0.75568336 P
atom_frac       0.50321577      0.50952993      0.74642280 P
atom_frac       0.50888388      0.75466209      0.50272123 P
atom_frac       0.57481318      0.69860377      0.94568053 S
atom_frac       0.95646551      0.69067275      0.56480363 S
atom_frac       0.69354959      0.57313271      0.95060388 S
atom_frac       0.81786240      0.56854808      0.56398212 S
atom_frac       0.56964402      0.95652088      0.68514436 S
atom_frac       0.94665202      0.94692717      0.80683079 S
atom_frac       0.68680107      0.81270803      0.69759904 S
atom_frac       0.81002927      0.81135479      0.82039594 S
atom_frac       0.62932294      0.88058845      0.87827992 S
atom_frac       0.81309578      0.69266637      0.69681664 S
atom_frac       0.68691786      0.68603617      0.80553450 S
atom_frac       0.93907931      0.56627761      0.68605157 S
atom_frac       0.56443313      0.57388086      0.80493553 S
atom_frac       0.88006064      0.62853812      0.87860991 S
atom_frac       0.80950930      0.94504222      0.93951877 S
atom_frac       0.69742783      0.94480616      0.56400895 S
atom_frac       0.94383717      0.80950302      0.94101392 S
atom_frac       0.57043306      0.81788682      0.56463517 S
atom_frac       0.87888111      0.88093511      0.62978272 S
atom_frac       0.51155295      0.51117119      0.47602799 S
atom_frac       0.63200760      0.62983516      0.62569673 Cl
atom_frac       0.50743584      0.78047050      0.74837928 Cl
atom_frac       0.76253022      0.51521705      0.76207546 Cl
atom_frac       0.77368519      0.76241432      0.52728814 Cl
# 
# What follows is the current estimated Hessian matrix constructed by the BFGS algorithm.
# This is NOT the true Hessian matrix of the system.
# If you do not want this information here, switch it off using the "hessian_to_restart_geometry" keyword.
# 
trust_radius             0.2000000030
hessian_file
