# 
# This is the geometry file that corresponds to the current relaxation step.
# If you do not want this file to be written, set the "write_restart_geometry" flag to .false.
#  aims_uuid : D03C2A68-3439-410F-A2B1-456438C4D343                                
# 
lattice_vector     19.77056562     -0.33626603     -0.24350786
lattice_vector     -0.34003166     19.77172801     -0.24317096
lattice_vector     -0.24787140     -0.24910662     20.39822849
atom_frac       0.10877244      0.10331682      0.01314686 Li
atom_frac       0.15861764      0.10320203      0.23553035 Li
atom_frac       0.10266570      0.23638123      0.14329737 Li
atom_frac       0.11912407      0.00725722      0.11467957 Li
atom_frac       0.01079003      0.09638962      0.10724956 Li
atom_frac       0.23790653      0.15590409      0.09698534 Li
atom_frac       0.10343727      0.35865090      0.26314575 Li
atom_frac       0.10331077      0.40852570      0.48552056 Li
atom_frac       0.15602068      0.48776870      0.34697671 Li
atom_frac       0.09648855      0.26066583      0.35724087 Li
atom_frac       0.00736277      0.36899614      0.36467333 Li
atom_frac       0.23649411      0.35252048      0.39333347 Li
atom_frac       0.35343818      0.10864996      0.26315178 Li
atom_frac       0.35330004      0.15851581      0.48552841 Li
atom_frac       0.40600983      0.23776833      0.34697827 Li
atom_frac       0.34649699      0.01066625      0.35724571 Li
atom_frac       0.25735432      0.11898997      0.36467086 Li
atom_frac       0.48648843      0.10252927      0.39332178 Li
atom_frac       0.35878487      0.35332027      0.01315135 Li
atom_frac       0.40862362      0.35319310      0.23553433 Li
atom_frac       0.35267178      0.48637460      0.14329207 Li
atom_frac       0.36913038      0.25724993      0.11468116 Li
atom_frac       0.26079458      0.34637974      0.10725057 Li
atom_frac       0.48791926      0.40589366      0.09699393 Li
atom_frac       0.25539381      0.00060588      0.00304584 P
atom_frac       0.25073715      0.25529291      0.25303996 P
atom_frac       0.00072665      0.00530033      0.25304338 P
atom_frac       0.00539967      0.25063075      0.00303655 P
atom_frac       0.06254901      0.18968136      0.44460581 S
atom_frac       0.44874824      0.18807145      0.06083448 S
atom_frac       0.19312964      0.05694583      0.44521010 S
atom_frac       0.31597089      0.06536584      0.06028984 S
atom_frac       0.12732587      0.12416714      0.12580194 S
atom_frac       0.05708717      0.44302949      0.19522819 S
atom_frac       0.43819419      0.44861699      0.31083954 S
atom_frac       0.18979677      0.31243192      0.19459671 S
atom_frac       0.31548903      0.31584638      0.31031300 S
atom_frac       0.12428024      0.37719815      0.37579861 S
atom_frac       0.30708478      0.19301607      0.19521903 S
atom_frac       0.18819217      0.19862606      0.31083943 S
atom_frac       0.43979378      0.06243722      0.19459187 S
atom_frac       0.06549222      0.06584249      0.31031302 S
atom_frac       0.37427182      0.12719918      0.37580710 S
atom_frac       0.31255682      0.43967985      0.44460558 S
atom_frac       0.19873730      0.43806322      0.06085357 S
atom_frac       0.44312219      0.30694924      0.44519502 S
atom_frac       0.06598707      0.31537031      0.06029105 S
atom_frac       0.37733501      0.37416095      0.12580586 S
atom_frac       0.02837803      0.00143327      0.02618953 Cl
atom_frac       0.00154631      0.27826399      0.27617547 Cl
atom_frac       0.25154319      0.02826078      0.27618211 Cl
atom_frac       0.27837981      0.25143455      0.02619114 Cl
atom_frac       0.10877245      0.10331682      0.51314685 Li
atom_frac       0.15861764      0.10320205      0.73553035 Li
atom_frac       0.10266572      0.23638121      0.64329739 Li
atom_frac       0.11912411      0.00725718      0.61467954 Li
atom_frac       0.01079002      0.09638962      0.60724957 Li
atom_frac       0.23790653      0.15590409      0.59698536 Li
atom_frac       0.10343726      0.35865089      0.76314577 Li
atom_frac       0.10331075      0.40852570      0.98552056 Li
atom_frac       0.15602068      0.48776870      0.84697671 Li
atom_frac       0.09648856      0.26066584      0.85724086 Li
atom_frac       0.00736279      0.36899611      0.86467335 Li
atom_frac       0.23649412      0.35252046      0.89333348 Li
atom_frac       0.35343819      0.10864993      0.76315181 Li
atom_frac       0.35330001      0.15851581      0.98552842 Li
atom_frac       0.40600982      0.23776832      0.84697823 Li
atom_frac       0.34649700      0.01066627      0.85724568 Li
atom_frac       0.25735434      0.11898997      0.86467086 Li
atom_frac       0.48648843      0.10252921      0.89332175 Li
atom_frac       0.35878487      0.35332026      0.51315136 Li
atom_frac       0.40862360      0.35319307      0.73553433 Li
atom_frac       0.35267177      0.48637460      0.64329208 Li
atom_frac       0.36913034      0.25724995      0.61468119 Li
atom_frac       0.26079460      0.34637973      0.60725057 Li
atom_frac       0.48791927      0.40589367      0.59699395 Li
atom_frac       0.25539387      0.00060608      0.50304591 P
atom_frac       0.25073709      0.25529288      0.75303988 P
atom_frac       0.00072673      0.00530037      0.75304347 P
atom_frac       0.00539973      0.25063085      0.50303663 P
atom_frac       0.06254910      0.18968135      0.94460578 S
atom_frac       0.44874816      0.18807144      0.56083460 S
atom_frac       0.19312970      0.05694590      0.94521016 S
atom_frac       0.31597104      0.06536591      0.56028997 S
atom_frac       0.12732586      0.12416712      0.62580193 S
atom_frac       0.05708725      0.44302955      0.69522824 S
atom_frac       0.43819419      0.44861693      0.81083955 S
atom_frac       0.18979675      0.31243198      0.69459670 S
atom_frac       0.31548897      0.31584631      0.81031297 S
atom_frac       0.12428026      0.37719815      0.87579863 S
atom_frac       0.30708483      0.19301603      0.69521905 S
atom_frac       0.18819220      0.19862607      0.81083948 S
atom_frac       0.43979379      0.06243735      0.69459181 S
atom_frac       0.06549229      0.06584256      0.81031309 S
atom_frac       0.37427183      0.12719919      0.87580713 S
atom_frac       0.31255678      0.43967986      0.94460557 S
atom_frac       0.19873732      0.43806323      0.56085359 S
atom_frac       0.44312211      0.30694915      0.94519497 S
atom_frac       0.06598716      0.31537038      0.56029113 S
atom_frac       0.37733502      0.37416096      0.62580587 S
atom_frac       0.02837803      0.00143327      0.52618955 Cl
atom_frac       0.00154630      0.27826399      0.77617547 Cl
atom_frac       0.25154317      0.02826077      0.77618211 Cl
atom_frac       0.27837981      0.25143453      0.52619114 Cl
atom_frac       0.10877244      0.60331681      0.01314684 Li
atom_frac       0.15861764      0.60320206      0.23553034 Li
atom_frac       0.10266573      0.73638122      0.14329740 Li
atom_frac       0.11912408      0.50725719      0.11467955 Li
atom_frac       0.01079001      0.59638961      0.10724957 Li
atom_frac       0.23790653      0.65590411      0.09698537 Li
atom_frac       0.10343727      0.85865089      0.26314576 Li
atom_frac       0.10331075      0.90852570      0.48552056 Li
atom_frac       0.15602067      0.98776870      0.34697669 Li
atom_frac       0.09648856      0.76066585      0.35724084 Li
atom_frac       0.00736279      0.86899612      0.36467333 Li
atom_frac       0.23649412      0.85252044      0.39333345 Li
atom_frac       0.35343818      0.60864994      0.26315178 Li
atom_frac       0.35330001      0.65851580      0.48552841 Li
atom_frac       0.40600983      0.73776833      0.34697825 Li
atom_frac       0.34649698      0.51066626      0.35724570 Li
atom_frac       0.25735434      0.61898995      0.36467087 Li
atom_frac       0.48648843      0.60252925      0.39332176 Li
atom_frac       0.35878486      0.85332027      0.01315136 Li
atom_frac       0.40862361      0.85319308      0.23553433 Li
atom_frac       0.35267176      0.98637461      0.14329206 Li
atom_frac       0.36913036      0.75724995      0.11468116 Li
atom_frac       0.26079461      0.84637975      0.10725054 Li
atom_frac       0.48791927      0.90589366      0.09699392 Li
atom_frac       0.25539387      0.50060600      0.00304590 P
atom_frac       0.25073699      0.75529286      0.25303988 P
atom_frac       0.00072678      0.50530039      0.25304345 P
atom_frac       0.00539972      0.75063093      0.00303661 P
atom_frac       0.06254911      0.68968137      0.44460576 S
atom_frac       0.44874821      0.68807145      0.06083455 S
atom_frac       0.19312964      0.55694588      0.44521013 S
atom_frac       0.31597098      0.56536591      0.06028993 S
atom_frac       0.12732585      0.62416712      0.12580191 S
atom_frac       0.05708723      0.94302951      0.19522822 S
atom_frac       0.43819419      0.94861699      0.31083950 S
atom_frac       0.18979676      0.81243204      0.19459665 S
atom_frac       0.31548896      0.81584626      0.31031290 S
atom_frac       0.12428025      0.87719816      0.37579863 S
atom_frac       0.30708484      0.69301610      0.19521907 S
atom_frac       0.18819218      0.69862602      0.31083952 S
atom_frac       0.43979379      0.56243727      0.19459186 S
atom_frac       0.06549229      0.56584260      0.31031311 S
atom_frac       0.37427183      0.62719919      0.37580711 S
atom_frac       0.31255672      0.93967986      0.44460560 S
atom_frac       0.19873726      0.93806322      0.06085365 S
atom_frac       0.44312218      0.80694917      0.44519502 S
atom_frac       0.06598719      0.81537038      0.06029115 S
atom_frac       0.37733503      0.87416097      0.12580587 S
atom_frac       0.02837803      0.50143328      0.02618954 Cl
atom_frac       0.00154629      0.77826399      0.27617546 Cl
atom_frac       0.25154317      0.52826078      0.27618210 Cl
atom_frac       0.27837980      0.75143454      0.02619113 Cl
atom_frac       0.10877243      0.60331682      0.51314686 Li
atom_frac       0.15861764      0.60320203      0.73553035 Li
atom_frac       0.10266568      0.73638122      0.64329736 Li
atom_frac       0.11912409      0.50725720      0.61467954 Li
atom_frac       0.01079003      0.59638963      0.60724954 Li
atom_frac       0.23790652      0.65590408      0.59698533 Li
atom_frac       0.10343726      0.85865090      0.76314575 Li
atom_frac       0.10331077      0.90852570      0.98552055 Li
atom_frac       0.15602070      0.98776869      0.84697674 Li
atom_frac       0.09648854      0.76066582      0.85724088 Li
atom_frac       0.00736277      0.86899612      0.86467334 Li
atom_frac       0.23649411      0.85252048      0.89333350 Li
atom_frac       0.35343819      0.60864994      0.76315178 Li
atom_frac       0.35330004      0.65851582      0.98552841 Li
atom_frac       0.40600982      0.73776832      0.84697825 Li
atom_frac       0.34649700      0.51066625      0.85724569 Li
atom_frac       0.25735431      0.61898998      0.86467084 Li
atom_frac       0.48648842      0.60252925      0.89332176 Li
atom_frac       0.35878487      0.85332026      0.51315134 Li
atom_frac       0.40862361      0.85319309      0.73553432 Li
atom_frac       0.35267180      0.98637460      0.64329210 Li
atom_frac       0.36913034      0.75724993      0.61468118 Li
atom_frac       0.26079458      0.84637972      0.60725058 Li
atom_frac       0.48791927      0.90589369      0.59699397 Li
atom_frac       0.25539384      0.50060598      0.50304584 P
atom_frac       0.25073721      0.75529293      0.75303994 P
atom_frac       0.00072659      0.50530031      0.75304339 P
atom_frac       0.00539965      0.75063071      0.50303655 P
atom_frac       0.06254897      0.68968136      0.94460583 S
atom_frac       0.44874817      0.68807145      0.56083453 S
atom_frac       0.19312968      0.55694585      0.94521013 S
atom_frac       0.31597095      0.56536586      0.56028991 S
atom_frac       0.12732587      0.62416713      0.62580194 S
atom_frac       0.05708718      0.94302952      0.69522820 S
atom_frac       0.43819419      0.94861691      0.81083962 S
atom_frac       0.18979675      0.81243189      0.69459672 S
atom_frac       0.31548903      0.81584640      0.81031305 S
atom_frac       0.12428024      0.87719814      0.87579861 S
atom_frac       0.30708476      0.69301601      0.69521902 S
atom_frac       0.18819218      0.69862610      0.81083940 S
atom_frac       0.43979379      0.56243726      0.69459183 S
atom_frac       0.06549222      0.56584246      0.81031299 S
atom_frac       0.37427181      0.62719918      0.87580711 S
atom_frac       0.31255686      0.93967986      0.94460554 S
atom_frac       0.19873733      0.93806321      0.56085353 S
atom_frac       0.44312212      0.80694922      0.94519499 S
atom_frac       0.06598705      0.81537031      0.56029102 S
atom_frac       0.37733501      0.87416095      0.62580585 S
atom_frac       0.02837803      0.50143325      0.52618954 Cl
atom_frac       0.00154631      0.77826399      0.77617547 Cl
atom_frac       0.25154318      0.52826077      0.77618211 Cl
atom_frac       0.27837981      0.75143455      0.52619114 Cl
atom_frac       0.60877245      0.10331681      0.01314684 Li
atom_frac       0.65861764      0.10320205      0.23553034 Li
atom_frac       0.60266573      0.23638121      0.14329740 Li
atom_frac       0.61912409      0.00725719      0.11467955 Li
atom_frac       0.51079001      0.09638961      0.10724958 Li
atom_frac       0.73790653      0.15590410      0.09698537 Li
atom_frac       0.60343726      0.35865089      0.26314576 Li
atom_frac       0.60331076      0.40852569      0.48552056 Li
atom_frac       0.65602066      0.48776869      0.34697668 Li
atom_frac       0.59648857      0.26066585      0.35724085 Li
atom_frac       0.50736278      0.36899614      0.36467332 Li
atom_frac       0.73649412      0.35252044      0.39333345 Li
atom_frac       0.85343819      0.10864994      0.26315180 Li
atom_frac       0.85330001      0.15851579      0.48552842 Li
atom_frac       0.90600983      0.23776833      0.34697824 Li
atom_frac       0.84649700      0.01066627      0.35724568 Li
atom_frac       0.75735434      0.11898995      0.36467087 Li
atom_frac       0.98648843      0.10252924      0.39332176 Li
atom_frac       0.85878486      0.35332027      0.01315136 Li
atom_frac       0.90862361      0.35319307      0.23553433 Li
atom_frac       0.85267175      0.48637460      0.14329205 Li
atom_frac       0.86913035      0.25724995      0.11468118 Li
atom_frac       0.76079460      0.34637974      0.10725054 Li
atom_frac       0.98791927      0.40589367      0.09699392 Li
atom_frac       0.75539388      0.00060600      0.00304590 P
atom_frac       0.75073702      0.25529287      0.25303987 P
atom_frac       0.50072678      0.00530038      0.25304345 P
atom_frac       0.50539974      0.25063092      0.00303662 P
atom_frac       0.56254911      0.18968137      0.44460577 S
atom_frac       0.94874819      0.18807145      0.06083458 S
atom_frac       0.69312967      0.05694589      0.44521016 S
atom_frac       0.81597098      0.06536591      0.06028994 S
atom_frac       0.62732586      0.12416712      0.12580192 S
atom_frac       0.55708722      0.44302948      0.19522818 S
atom_frac       0.93819419      0.44861699      0.31083949 S
atom_frac       0.68979675      0.31243203      0.19459666 S
atom_frac       0.81548896      0.31584626      0.31031292 S
atom_frac       0.62428025      0.37719815      0.37579863 S
atom_frac       0.80708484      0.19301607      0.19521907 S
atom_frac       0.68819219      0.19862604      0.31083951 S
atom_frac       0.93979378      0.06243732      0.19459182 S
atom_frac       0.56549228      0.06584259      0.31031310 S
atom_frac       0.87427183      0.12719919      0.37580712 S
atom_frac       0.81255673      0.43967984      0.44460561 S
atom_frac       0.69873726      0.43806321      0.06085365 S
atom_frac       0.94312216      0.30694917      0.44519499 S
atom_frac       0.56598720      0.31537039      0.06029116 S
atom_frac       0.87733503      0.37416097      0.12580587 S
atom_frac       0.52837803      0.00143328      0.02618954 Cl
atom_frac       0.50154629      0.27826399      0.27617547 Cl
atom_frac       0.75154317      0.02826077      0.27618210 Cl
atom_frac       0.77837981      0.25143453      0.02619113 Cl
atom_frac       0.60877243      0.10331682      0.51314687 Li
atom_frac       0.65861764      0.10320203      0.73553036 Li
atom_frac       0.60266569      0.23638122      0.64329736 Li
atom_frac       0.61912408      0.00725720      0.61467955 Li
atom_frac       0.51079004      0.09638962      0.60724954 Li
atom_frac       0.73790653      0.15590408      0.59698534 Li
atom_frac       0.60343726      0.35865089      0.76314575 Li
atom_frac       0.60331077      0.40852570      0.98552055 Li
atom_frac       0.65602070      0.48776869      0.84697674 Li
atom_frac       0.59648854      0.26066582      0.85724089 Li
atom_frac       0.50736278      0.36899611      0.86467335 Li
atom_frac       0.73649412      0.35252048      0.89333350 Li
atom_frac       0.85343819      0.10864994      0.76315179 Li
atom_frac       0.85330004      0.15851581      0.98552841 Li
atom_frac       0.90600984      0.23776832      0.84697827 Li
atom_frac       0.84649700      0.01066624      0.85724570 Li
atom_frac       0.75735432      0.11898997      0.86467086 Li
atom_frac       0.98648843      0.10252925      0.89332178 Li
atom_frac       0.85878488      0.35332025      0.51315134 Li
atom_frac       0.90862361      0.35319309      0.73553433 Li
atom_frac       0.85267180      0.48637459      0.64329211 Li
atom_frac       0.86913036      0.25724992      0.61468117 Li
atom_frac       0.76079458      0.34637972      0.60725058 Li
atom_frac       0.98791927      0.40589368      0.59699397 Li
atom_frac       0.75539382      0.00060590      0.50304582 P
atom_frac       0.75073719      0.25529292      0.75303995 P
atom_frac       0.50072657      0.00530030      0.75304340 P
atom_frac       0.50539966      0.25063071      0.50303656 P
atom_frac       0.56254897      0.18968135      0.94460583 S
atom_frac       0.94874820      0.18807144      0.56083451 S
atom_frac       0.69312968      0.05694583      0.94521013 S
atom_frac       0.81597090      0.06536583      0.56028987 S
atom_frac       0.62732588      0.12416713      0.62580195 S
atom_frac       0.55708719      0.44302954      0.69522822 S
atom_frac       0.93819419      0.44861692      0.81083961 S
atom_frac       0.68979676      0.31243190      0.69459672 S
atom_frac       0.81548903      0.31584638      0.81031304 S
atom_frac       0.62428024      0.37719813      0.87579861 S
atom_frac       0.80708478      0.19301602      0.69521903 S
atom_frac       0.68819218      0.19862608      0.81083942 S
atom_frac       0.93979379      0.06243723      0.69459185 S
atom_frac       0.56549222      0.06584245      0.81031298 S
atom_frac       0.87427182      0.12719917      0.87580711 S
atom_frac       0.81255686      0.43967986      0.94460553 S
atom_frac       0.69873736      0.43806323      0.56085352 S
atom_frac       0.94312215      0.30694923      0.94519502 S
atom_frac       0.56598706      0.31537031      0.56029103 S
atom_frac       0.87733501      0.37416094      0.62580585 S
atom_frac       0.52837803      0.00143325      0.52618954 Cl
atom_frac       0.50154631      0.27826399      0.77617547 Cl
atom_frac       0.75154318      0.02826077      0.77618211 Cl
atom_frac       0.77837981      0.25143454      0.52619115 Cl
atom_frac       0.60877244      0.60331681      0.01314685 Li
atom_frac       0.65861763      0.60320202      0.23553034 Li
atom_frac       0.60266570      0.73638122      0.14329737 Li
atom_frac       0.61912407      0.50725721      0.11467956 Li
atom_frac       0.51079002      0.59638961      0.10724957 Li
atom_frac       0.73790653      0.65590409      0.09698534 Li
atom_frac       0.60343727      0.85865089      0.26314574 Li
atom_frac       0.60331078      0.90852570      0.48552055 Li
atom_frac       0.65602069      0.98776870      0.34697673 Li
atom_frac       0.59648856      0.76066583      0.35724085 Li
atom_frac       0.50736276      0.86899614      0.36467332 Li
atom_frac       0.73649411      0.85252047      0.39333347 Li
atom_frac       0.85343817      0.60864995      0.26315177 Li
atom_frac       0.85330002      0.65851580      0.48552840 Li
atom_frac       0.90600984      0.73776832      0.34697827 Li
atom_frac       0.84649698      0.51066624      0.35724571 Li
atom_frac       0.75735432      0.61898996      0.36467086 Li
atom_frac       0.98648842      0.60252927      0.39332178 Li
atom_frac       0.85878487      0.85332026      0.01315134 Li
atom_frac       0.90862362      0.85319310      0.23553432 Li
atom_frac       0.85267178      0.98637459      0.14329208 Li
atom_frac       0.86913038      0.75724992      0.11468115 Li
atom_frac       0.76079458      0.84637974      0.10725055 Li
atom_frac       0.98791927      0.90589368      0.09699395 Li
atom_frac       0.75539381      0.50060587      0.00304584 P
atom_frac       0.75073711      0.75529292      0.25303996 P
atom_frac       0.50072673      0.50530033      0.25304340 P
atom_frac       0.50539967      0.75063080      0.00303654 P
atom_frac       0.56254905      0.68968136      0.44460576 S
atom_frac       0.94874824      0.68807144      0.06083447 S
atom_frac       0.69312961      0.55694583      0.44521009 S
atom_frac       0.81597089      0.56536585      0.06028984 S
atom_frac       0.62732586      0.62416714      0.12580192 S
atom_frac       0.55708718      0.94302948      0.19522818 S
atom_frac       0.93819420      0.94861696      0.31083958 S
atom_frac       0.68979676      0.81243193      0.19459668 S
atom_frac       0.81548903      0.81584636      0.31031299 S
atom_frac       0.62428023      0.87719815      0.37579861 S
atom_frac       0.80708477      0.69301608      0.19521904 S
atom_frac       0.68819217      0.69862603      0.31083943 S
atom_frac       0.93979377      0.56243721      0.19459186 S
atom_frac       0.56549223      0.56584255      0.31031305 S
atom_frac       0.87427182      0.62719917      0.37580709 S
atom_frac       0.81255685      0.93967984      0.44460554 S
atom_frac       0.69873729      0.93806322      0.06085356 S
atom_frac       0.94312218      0.80694923      0.44519502 S
atom_frac       0.56598709      0.81537032      0.06029107 S
atom_frac       0.87733501      0.87416094      0.12580585 S
atom_frac       0.52837803      0.50143326      0.02618953 Cl
atom_frac       0.50154630      0.77826399      0.27617546 Cl
atom_frac       0.75154319      0.52826077      0.27618210 Cl
atom_frac       0.77837980      0.75143455      0.02619114 Cl
atom_frac       0.60877243      0.60331682      0.51314685 Li
atom_frac       0.65861765      0.60320205      0.73553035 Li
atom_frac       0.60266571      0.73638121      0.64329737 Li
atom_frac       0.61912411      0.50725717      0.61467954 Li
atom_frac       0.51079001      0.59638963      0.60724955 Li
atom_frac       0.73790652      0.65590408      0.59698534 Li
atom_frac       0.60343726      0.85865089      0.76314576 Li
atom_frac       0.60331075      0.90852569      0.98552055 Li
atom_frac       0.65602069      0.98776869      0.84697671 Li
atom_frac       0.59648854      0.76066583      0.85724087 Li
atom_frac       0.50736279      0.86899610      0.86467334 Li
atom_frac       0.73649412      0.85252044      0.89333348 Li
atom_frac       0.85343818      0.60864993      0.76315180 Li
atom_frac       0.85330001      0.65851581      0.98552841 Li
atom_frac       0.90600981      0.73776831      0.84697822 Li
atom_frac       0.84649700      0.51066626      0.85724567 Li
atom_frac       0.75735433      0.61898997      0.86467085 Li
atom_frac       0.98648843      0.60252922      0.89332175 Li
atom_frac       0.85878487      0.85332026      0.51315135 Li
atom_frac       0.90862360      0.85319306      0.73553433 Li
atom_frac       0.85267176      0.98637460      0.64329207 Li
atom_frac       0.86913034      0.75724995      0.61468118 Li
atom_frac       0.76079459      0.84637973      0.60725057 Li
atom_frac       0.98791927      0.90589367      0.59699393 Li
atom_frac       0.75539388      0.50060610      0.50304588 P
atom_frac       0.75073711      0.75529286      0.75303987 P
atom_frac       0.50072668      0.50530037      0.75304346 P
atom_frac       0.50539973      0.75063078      0.50303661 P
atom_frac       0.56254907      0.68968135      0.94460580 S
atom_frac       0.94874816      0.68807144      0.56083459 S
atom_frac       0.69312971      0.55694589      0.94521016 S
atom_frac       0.81597103      0.56536590      0.56028999 S
atom_frac       0.62732586      0.62416711      0.62580193 S
atom_frac       0.55708725      0.94302955      0.69522825 S
atom_frac       0.93819418      0.94861694      0.81083952 S
atom_frac       0.68979675      0.81243197      0.69459670 S
atom_frac       0.81548896      0.81584631      0.81031296 S
atom_frac       0.62428026      0.87719815      0.87579862 S
atom_frac       0.80708482      0.69301602      0.69521903 S
atom_frac       0.68819218      0.69862608      0.81083947 S
atom_frac       0.93979379      0.56243734      0.69459181 S
atom_frac       0.56549228      0.56584253      0.81031306 S
atom_frac       0.87427183      0.62719918      0.87580713 S
atom_frac       0.81255677      0.93967985      0.94460556 S
atom_frac       0.69873729      0.93806322      0.56085363 S
atom_frac       0.94312210      0.80694916      0.94519495 S
atom_frac       0.56598711      0.81537038      0.56029109 S
atom_frac       0.87733502      0.87416096      0.62580587 S
atom_frac       0.52837803      0.50143326      0.52618955 Cl
atom_frac       0.50154629      0.77826398      0.77617546 Cl
atom_frac       0.75154317      0.52826076      0.77618210 Cl
atom_frac       0.77837981      0.75143453      0.52619114 Cl
# 
# What follows is the current estimated Hessian matrix constructed by the BFGS algorithm.
# This is NOT the true Hessian matrix of the system.
# If you do not want this information here, switch it off using the "hessian_to_restart_geometry" keyword.
# 
trust_radius             0.4000000060
hessian_file
