# 
# This is the geometry file that corresponds to the current relaxation step.
# If you do not want this file to be written, set the "write_restart_geometry" flag to .false.
#  aims_uuid : A5FE72FE-AB54-4849-A1A7-7B4F256FB145                                
# 
lattice_vector     19.80842503     -0.28732249     -0.21956231
lattice_vector     -0.29077474     19.80338831     -0.21915075
lattice_vector     -0.21657454     -0.21793021     20.17936764
atom_frac       0.10909551      0.10541339      0.01249777 Li
atom_frac       0.15805029      0.10240511      0.23579589 Li
atom_frac       0.09882297      0.23705629      0.14754194 Li
atom_frac       0.11692634      0.00932964      0.11319104 Li
atom_frac       0.01026953      0.09821996      0.10649689 Li
atom_frac       0.23615589      0.15758035      0.09690856 Li
atom_frac       0.10571362      0.35909744      0.26254700 Li
atom_frac       0.10241622      0.40781238      0.48588414 Li
atom_frac       0.15759552      0.48626521      0.34707799 Li
atom_frac       0.09843534      0.26024493      0.35663840 Li
atom_frac       0.00956666      0.36684823      0.36319308 Li
atom_frac       0.23727638      0.34888298      0.39729883 Li
atom_frac       0.35590368      0.10922110      0.26253577 Li
atom_frac       0.35229686      0.15785214      0.48585423 Li
atom_frac       0.40760723      0.23622903      0.34724685 Li
atom_frac       0.34837814      0.01022037      0.35654619 Li
atom_frac       0.25952455      0.11672627      0.36303293 Li
atom_frac       0.48719925      0.09866246      0.39735056 Li
atom_frac       0.35915221      0.35546617      0.01257679 Li
atom_frac       0.40815119      0.35230547      0.23587535 Li
atom_frac       0.34869717      0.48701785      0.14754266 Li
atom_frac       0.36692861      0.25931580      0.11325653 Li
atom_frac       0.26030106      0.34816563      0.10653171 Li
atom_frac       0.48620388      0.40748123      0.09703024 Li
atom_frac       0.25432032      0.00143271      0.00315192 P
atom_frac       0.25156996      0.25419085      0.25310729 P
atom_frac       0.00155844      0.00421369      0.25312377 P
atom_frac       0.00429498      0.25145281      0.00314428 P
atom_frac       0.06123741      0.19025837      0.44404054 S
atom_frac       0.44715356      0.18941697      0.06152365 S
atom_frac       0.19294229      0.05819084      0.44412534 S
atom_frac       0.31401282      0.06575881      0.06151510 S
atom_frac       0.12597924      0.12571713      0.12606841 S
atom_frac       0.05818795      0.44271373      0.19409866 S
atom_frac       0.43961547      0.44711825      0.31164117 S
atom_frac       0.19036636      0.31112670      0.19400333 S
atom_frac       0.31593871      0.31396013      0.31135494 S
atom_frac       0.12591179      0.37600400      0.37610492 S
atom_frac       0.30813102      0.19264724      0.19405961 S
atom_frac       0.18960146      0.19713069      0.31163253 S
atom_frac       0.44036391      0.06107853      0.19395021 S
atom_frac       0.06591445      0.06402168      0.31135091 S
atom_frac       0.37586397      0.12596250      0.37611966 S
atom_frac       0.31132763      0.44028474      0.44405446 S
atom_frac       0.19720262      0.43939825      0.06156500 S
atom_frac       0.44290040      0.30822288      0.44414198 S
atom_frac       0.06401266      0.31574219      0.06153356 S
atom_frac       0.37601788      0.37569392      0.12615528 S
atom_frac       0.02765933      0.00421687      0.02381963 Cl
atom_frac       0.00445683      0.27753244      0.27391897 Cl
atom_frac       0.25440356      0.02748412      0.27387571 Cl
atom_frac       0.27763895      0.25424093      0.02389188 Cl
atom_frac       0.10909551      0.10541339      0.51249777 Li
atom_frac       0.15805028      0.10240511      0.73579589 Li
atom_frac       0.09882296      0.23705629      0.64754194 Li
atom_frac       0.11692633      0.00932964      0.61319104 Li
atom_frac       0.01026953      0.09821996      0.60649689 Li
atom_frac       0.23615589      0.15758035      0.59690856 Li
atom_frac       0.10571362      0.35909745      0.76254700 Li
atom_frac       0.10241622      0.40781237      0.98588414 Li
atom_frac       0.15759551      0.48626521      0.84707799 Li
atom_frac       0.09843534      0.26024493      0.85663840 Li
atom_frac       0.00956666      0.36684823      0.86319309 Li
atom_frac       0.23727638      0.34888299      0.89729883 Li
atom_frac       0.35590367      0.10922111      0.76253577 Li
atom_frac       0.35229686      0.15785213      0.98585424 Li
atom_frac       0.40760722      0.23622904      0.84724685 Li
atom_frac       0.34837814      0.01022038      0.85654620 Li
atom_frac       0.25952455      0.11672627      0.86303294 Li
atom_frac       0.48719925      0.09866247      0.89735055 Li
atom_frac       0.35915221      0.35546618      0.51257679 Li
atom_frac       0.40815119      0.35230547      0.73587535 Li
atom_frac       0.34869716      0.48701785      0.64754266 Li
atom_frac       0.36692860      0.25931580      0.61325653 Li
atom_frac       0.26030106      0.34816563      0.60653171 Li
atom_frac       0.48620387      0.40748123      0.59703024 Li
atom_frac       0.25432032      0.00143269      0.50315191 P
atom_frac       0.25156996      0.25419086      0.75310729 P
atom_frac       0.00155843      0.00421369      0.75312376 P
atom_frac       0.00429497      0.25145280      0.50314428 P
atom_frac       0.06123741      0.19025837      0.94404054 S
atom_frac       0.44715356      0.18941698      0.56152365 S
atom_frac       0.19294228      0.05819083      0.94412534 S
atom_frac       0.31401281      0.06575881      0.56151509 S
atom_frac       0.12597924      0.12571714      0.62606841 S
atom_frac       0.05818794      0.44271374      0.69409866 S
atom_frac       0.43961546      0.44711826      0.81164117 S
atom_frac       0.19036635      0.31112670      0.69400333 S
atom_frac       0.31593871      0.31396013      0.81135494 S
atom_frac       0.12591179      0.37600400      0.87610492 S
atom_frac       0.30813101      0.19264724      0.69405960 S
atom_frac       0.18960146      0.19713069      0.81163253 S
atom_frac       0.44036391      0.06107854      0.69395022 S
atom_frac       0.06591444      0.06402167      0.81135091 S
atom_frac       0.37586396      0.12596251      0.87611966 S
atom_frac       0.31132763      0.44028474      0.94405446 S
atom_frac       0.19720262      0.43939826      0.56156500 S
atom_frac       0.44290041      0.30822288      0.94414198 S
atom_frac       0.06401265      0.31574220      0.56153355 S
atom_frac       0.37601787      0.37569392      0.62615528 S
atom_frac       0.02765933      0.00421687      0.52381962 Cl
atom_frac       0.00445682      0.27753245      0.77391897 Cl
atom_frac       0.25440356      0.02748412      0.77387571 Cl
atom_frac       0.27763895      0.25424093      0.52389187 Cl
atom_frac       0.10909551      0.60541339      0.01249777 Li
atom_frac       0.15805028      0.60240511      0.23579589 Li
atom_frac       0.09882296      0.73705629      0.14754194 Li
atom_frac       0.11692634      0.50932964      0.11319104 Li
atom_frac       0.01026953      0.59821996      0.10649689 Li
atom_frac       0.23615589      0.65758035      0.09690856 Li
atom_frac       0.10571362      0.85909744      0.26254700 Li
atom_frac       0.10241622      0.90781237      0.48588414 Li
atom_frac       0.15759552      0.98626521      0.34707799 Li
atom_frac       0.09843534      0.76024492      0.35663840 Li
atom_frac       0.00956666      0.86684823      0.36319308 Li
atom_frac       0.23727638      0.84888298      0.39729883 Li
atom_frac       0.35590367      0.60922110      0.26253577 Li
atom_frac       0.35229686      0.65785214      0.48585423 Li
atom_frac       0.40760723      0.73622903      0.34724684 Li
atom_frac       0.34837814      0.51022037      0.35654619 Li
atom_frac       0.25952455      0.61672627      0.36303293 Li
atom_frac       0.48719925      0.59866246      0.39735056 Li
atom_frac       0.35915221      0.85546618      0.01257679 Li
atom_frac       0.40815119      0.85230546      0.23587534 Li
atom_frac       0.34869717      0.98701785      0.14754266 Li
atom_frac       0.36692860      0.75931580      0.11325653 Li
atom_frac       0.26030106      0.84816563      0.10653171 Li
atom_frac       0.48620387      0.90748123      0.09703024 Li
atom_frac       0.25432032      0.50143271      0.00315192 P
atom_frac       0.25156996      0.75419085      0.25310729 P
atom_frac       0.00155844      0.50421369      0.25312377 P
atom_frac       0.00429497      0.75145280      0.00314427 P
atom_frac       0.06123741      0.69025837      0.44404053 S
atom_frac       0.44715355      0.68941697      0.06152365 S
atom_frac       0.19294228      0.55819084      0.44412534 S
atom_frac       0.31401282      0.56575881      0.06151510 S
atom_frac       0.12597924      0.62571714      0.12606841 S
atom_frac       0.05818794      0.94271373      0.19409866 S
atom_frac       0.43961546      0.94711825      0.31164117 S
atom_frac       0.19036635      0.81112669      0.19400333 S
atom_frac       0.31593871      0.81396014      0.31135494 S
atom_frac       0.12591179      0.87600400      0.37610492 S
atom_frac       0.30813101      0.69264724      0.19405960 S
atom_frac       0.18960146      0.69713069      0.31163252 S
atom_frac       0.44036391      0.56107853      0.19395021 S
atom_frac       0.06591445      0.56402168      0.31135092 S
atom_frac       0.37586396      0.62596250      0.37611966 S
atom_frac       0.31132764      0.94028474      0.44405446 S
atom_frac       0.19720262      0.93939826      0.06156500 S
atom_frac       0.44290040      0.80822288      0.44414198 S
atom_frac       0.06401264      0.81574219      0.06153355 S
atom_frac       0.37601787      0.87569393      0.12615528 S
atom_frac       0.02765933      0.50421686      0.02381963 Cl
atom_frac       0.00445683      0.77753245      0.27391896 Cl
atom_frac       0.25440356      0.52748412      0.27387571 Cl
atom_frac       0.27763895      0.75424093      0.02389188 Cl
atom_frac       0.10909551      0.60541339      0.51249777 Li
atom_frac       0.15805028      0.60240511      0.73579589 Li
atom_frac       0.09882296      0.73705629      0.64754193 Li
atom_frac       0.11692633      0.50932964      0.61319103 Li
atom_frac       0.01026952      0.59821996      0.60649689 Li
atom_frac       0.23615589      0.65758035      0.59690856 Li
atom_frac       0.10571362      0.85909744      0.76254700 Li
atom_frac       0.10241622      0.90781237      0.98588414 Li
atom_frac       0.15759551      0.98626521      0.84707799 Li
atom_frac       0.09843533      0.76024493      0.85663840 Li
atom_frac       0.00956665      0.86684823      0.86319309 Li
atom_frac       0.23727637      0.84888298      0.89729883 Li
atom_frac       0.35590367      0.60922111      0.76253577 Li
atom_frac       0.35229686      0.65785214      0.98585424 Li
atom_frac       0.40760722      0.73622904      0.84724685 Li
atom_frac       0.34837814      0.51022037      0.85654620 Li
atom_frac       0.25952454      0.61672627      0.86303294 Li
atom_frac       0.48719925      0.59866247      0.89735055 Li
atom_frac       0.35915221      0.85546617      0.51257679 Li
atom_frac       0.40815118      0.85230547      0.73587535 Li
atom_frac       0.34869717      0.98701786      0.64754266 Li
atom_frac       0.36692860      0.75931580      0.61325653 Li
atom_frac       0.26030106      0.84816563      0.60653171 Li
atom_frac       0.48620387      0.90748123      0.59703024 Li
atom_frac       0.25432032      0.50143271      0.50315192 P
atom_frac       0.25156994      0.75419085      0.75310729 P
atom_frac       0.00155844      0.50421369      0.75312377 P
atom_frac       0.00429497      0.75145281      0.50314427 P
atom_frac       0.06123741      0.69025837      0.94404053 S
atom_frac       0.44715356      0.68941697      0.56152366 S
atom_frac       0.19294228      0.55819083      0.94412534 S
atom_frac       0.31401281      0.56575881      0.56151510 S
atom_frac       0.12597923      0.62571714      0.62606841 S
atom_frac       0.05818795      0.94271374      0.69409866 S
atom_frac       0.43961546      0.94711826      0.81164118 S
atom_frac       0.19036635      0.81112671      0.69400333 S
atom_frac       0.31593871      0.81396013      0.81135493 S
atom_frac       0.12591179      0.87600401      0.87610492 S
atom_frac       0.30813101      0.69264725      0.69405961 S
atom_frac       0.18960145      0.69713069      0.81163253 S
atom_frac       0.44036390      0.56107854      0.69395022 S
atom_frac       0.06591445      0.56402169      0.81135091 S
atom_frac       0.37586396      0.62596251      0.87611966 S
atom_frac       0.31132762      0.94028474      0.94405446 S
atom_frac       0.19720262      0.93939826      0.56156501 S
atom_frac       0.44290040      0.80822288      0.94414199 S
atom_frac       0.06401264      0.81574220      0.56153355 S
atom_frac       0.37601787      0.87569392      0.62615528 S
atom_frac       0.02765933      0.50421687      0.52381962 Cl
atom_frac       0.00445681      0.77753246      0.77391896 Cl
atom_frac       0.25440356      0.52748412      0.77387571 Cl
atom_frac       0.27763895      0.75424093      0.52389188 Cl
atom_frac       0.60909551      0.10541338      0.01249777 Li
atom_frac       0.65805029      0.10240510      0.23579589 Li
atom_frac       0.59882296      0.23705628      0.14754194 Li
atom_frac       0.61692634      0.00932963      0.11319103 Li
atom_frac       0.51026953      0.09821995      0.10649689 Li
atom_frac       0.73615589      0.15758034      0.09690855 Li
atom_frac       0.60571363      0.35909743      0.26254699 Li
atom_frac       0.60241622      0.40781237      0.48588414 Li
atom_frac       0.65759552      0.48626521      0.34707799 Li
atom_frac       0.59843534      0.26024492      0.35663840 Li
atom_frac       0.50956666      0.36684822      0.36319308 Li
atom_frac       0.73727638      0.34888298      0.39729883 Li
atom_frac       0.85590368      0.10922110      0.26253577 Li
atom_frac       0.85229686      0.15785213      0.48585423 Li
atom_frac       0.90760722      0.23622903      0.34724684 Li
atom_frac       0.84837815      0.01022037      0.35654619 Li
atom_frac       0.75952455      0.11672627      0.36303293 Li
atom_frac       0.98719925      0.09866247      0.39735055 Li
atom_frac       0.85915221      0.35546617      0.01257679 Li
atom_frac       0.90815119      0.35230546      0.23587535 Li
atom_frac       0.84869716      0.48701785      0.14754266 Li
atom_frac       0.86692861      0.25931580      0.11325653 Li
atom_frac       0.76030105      0.34816563      0.10653171 Li
atom_frac       0.98620387      0.40748123      0.09703024 Li
atom_frac       0.75432031      0.00143269      0.00315191 P
atom_frac       0.75156997      0.25419084      0.25310729 P
atom_frac       0.50155845      0.00421368      0.25312377 P
atom_frac       0.50429497      0.25145279      0.00314426 P
atom_frac       0.56123742      0.19025836      0.44404053 S
atom_frac       0.94715356      0.18941697      0.06152364 S
atom_frac       0.69294229      0.05819083      0.44412534 S
atom_frac       0.81401280      0.06575881      0.06151509 S
atom_frac       0.62597924      0.12571713      0.12606841 S
atom_frac       0.55818795      0.44271373      0.19409866 S
atom_frac       0.93961546      0.44711824      0.31164116 S
atom_frac       0.69036636      0.31112668      0.19400333 S
atom_frac       0.81593871      0.31396014      0.31135494 S
atom_frac       0.62591179      0.37600400      0.37610492 S
atom_frac       0.80813101      0.19264723      0.19405960 S
atom_frac       0.68960146      0.19713069      0.31163252 S
atom_frac       0.94036391      0.06107852      0.19395021 S
atom_frac       0.56591445      0.06402168      0.31135091 S
atom_frac       0.87586396      0.12596250      0.37611966 S
atom_frac       0.81132764      0.44028473      0.44405445 S
atom_frac       0.69720262      0.43939825      0.06156499 S
atom_frac       0.94290041      0.30822287      0.44414198 S
atom_frac       0.56401264      0.31574219      0.06153354 S
atom_frac       0.87601787      0.37569393      0.12615528 S
atom_frac       0.52765933      0.00421686      0.02381962 Cl
atom_frac       0.50445682      0.27753244      0.27391896 Cl
atom_frac       0.75440357      0.02748412      0.27387571 Cl
atom_frac       0.77763895      0.25424093      0.02389188 Cl
atom_frac       0.60909551      0.10541338      0.51249777 Li
atom_frac       0.65805028      0.10240511      0.73579589 Li
atom_frac       0.59882296      0.23705628      0.64754194 Li
atom_frac       0.61692633      0.00932964      0.61319103 Li
atom_frac       0.51026952      0.09821996      0.60649688 Li
atom_frac       0.73615589      0.15758035      0.59690856 Li
atom_frac       0.60571362      0.35909744      0.76254700 Li
atom_frac       0.60241622      0.40781237      0.98588414 Li
atom_frac       0.65759551      0.48626521      0.84707798 Li
atom_frac       0.59843534      0.26024493      0.85663839 Li
atom_frac       0.50956666      0.36684823      0.86319308 Li
atom_frac       0.73727638      0.34888298      0.89729883 Li
atom_frac       0.85590367      0.10922111      0.76253577 Li
atom_frac       0.85229685      0.15785213      0.98585424 Li
atom_frac       0.90760722      0.23622904      0.84724684 Li
atom_frac       0.84837814      0.01022038      0.85654620 Li
atom_frac       0.75952454      0.11672627      0.86303293 Li
atom_frac       0.98719925      0.09866247      0.89735055 Li
atom_frac       0.85915222      0.35546617      0.51257679 Li
atom_frac       0.90815119      0.35230547      0.73587534 Li
atom_frac       0.84869716      0.48701785      0.64754266 Li
atom_frac       0.86692860      0.25931580      0.61325653 Li
atom_frac       0.76030105      0.34816563      0.60653171 Li
atom_frac       0.98620387      0.40748123      0.59703024 Li
atom_frac       0.75432032      0.00143269      0.50315192 P
atom_frac       0.75156996      0.25419085      0.75310728 P
atom_frac       0.50155843      0.00421368      0.75312376 P
atom_frac       0.50429497      0.25145280      0.50314426 P
atom_frac       0.56123743      0.19025836      0.94404053 S
atom_frac       0.94715355      0.18941697      0.56152365 S
atom_frac       0.69294228      0.05819083      0.94412534 S
atom_frac       0.81401281      0.06575881      0.56151509 S
atom_frac       0.62597923      0.12571713      0.62606841 S
atom_frac       0.55818795      0.44271372      0.69409865 S
atom_frac       0.93961545      0.44711825      0.81164117 S
atom_frac       0.69036635      0.31112670      0.69400333 S
atom_frac       0.81593870      0.31396013      0.81135493 S
atom_frac       0.62591179      0.37600400      0.87610492 S
atom_frac       0.80813101      0.19264724      0.69405960 S
atom_frac       0.68960146      0.19713069      0.81163253 S
atom_frac       0.94036390      0.06107854      0.69395021 S
atom_frac       0.56591444      0.06402168      0.81135090 S
atom_frac       0.87586396      0.12596251      0.87611966 S
atom_frac       0.81132763      0.44028473      0.94405446 S
atom_frac       0.69720262      0.43939825      0.56156501 S
atom_frac       0.94290040      0.30822287      0.94414198 S
atom_frac       0.56401263      0.31574219      0.56153355 S
atom_frac       0.87601787      0.37569392      0.62615528 S
atom_frac       0.52765932      0.00421687      0.52381962 Cl
atom_frac       0.50445682      0.27753245      0.77391896 Cl
atom_frac       0.75440356      0.02748412      0.77387571 Cl
atom_frac       0.77763894      0.25424093      0.52389188 Cl
atom_frac       0.60909551      0.60541338      0.01249776 Li
atom_frac       0.65805028      0.60240510      0.23579588 Li
atom_frac       0.59882296      0.73705628      0.14754193 Li
atom_frac       0.61692634      0.50932963      0.11319103 Li
atom_frac       0.51026952      0.59821995      0.10649688 Li
atom_frac       0.73615589      0.65758034      0.09690855 Li
atom_frac       0.60571362      0.85909743      0.26254700 Li
atom_frac       0.60241622      0.90781237      0.48588414 Li
atom_frac       0.65759552      0.98626520      0.34707799 Li
atom_frac       0.59843534      0.76024492      0.35663839 Li
atom_frac       0.50956666      0.86684823      0.36319308 Li
atom_frac       0.73727638      0.84888297      0.39729883 Li
atom_frac       0.85590367      0.60922110      0.26253577 Li
atom_frac       0.85229685      0.65785214      0.48585423 Li
atom_frac       0.90760722      0.73622903      0.34724684 Li
atom_frac       0.84837815      0.51022037      0.35654619 Li
atom_frac       0.75952454      0.61672627      0.36303293 Li
atom_frac       0.98719925      0.59866246      0.39735055 Li
atom_frac       0.85915221      0.85546617      0.01257678 Li
atom_frac       0.90815119      0.85230546      0.23587534 Li
atom_frac       0.84869717      0.98701785      0.14754266 Li
atom_frac       0.86692860      0.75931579      0.11325653 Li
atom_frac       0.76030105      0.84816563      0.10653171 Li
atom_frac       0.98620387      0.90748123      0.09703024 Li
atom_frac       0.75432032      0.50143271      0.00315191 P
atom_frac       0.75156996      0.75419085      0.25310728 P
atom_frac       0.50155845      0.50421369      0.25312376 P
atom_frac       0.50429497      0.75145278      0.00314426 P
atom_frac       0.56123742      0.69025837      0.44404053 S
atom_frac       0.94715355      0.68941697      0.06152364 S
atom_frac       0.69294228      0.55819083      0.44412534 S
atom_frac       0.81401281      0.56575881      0.06151511 S
atom_frac       0.62597923      0.62571713      0.12606840 S
atom_frac       0.55818795      0.94271373      0.19409865 S
atom_frac       0.93961546      0.94711824      0.31164117 S
atom_frac       0.69036635      0.81112669      0.19400332 S
atom_frac       0.81593870      0.81396013      0.31135493 S
atom_frac       0.62591179      0.87600400      0.37610492 S
atom_frac       0.80813101      0.69264723      0.19405960 S
atom_frac       0.68960146      0.69713069      0.31163252 S
atom_frac       0.94036391      0.56107853      0.19395021 S
atom_frac       0.56591445      0.56402168      0.31135091 S
atom_frac       0.87586396      0.62596250      0.37611965 S
atom_frac       0.81132763      0.94028474      0.44405446 S
atom_frac       0.69720262      0.93939825      0.06156500 S
atom_frac       0.94290040      0.80822288      0.44414198 S
atom_frac       0.56401263      0.81574219      0.06153354 S
atom_frac       0.87601787      0.87569392      0.12615528 S
atom_frac       0.52765933      0.50421686      0.02381962 Cl
atom_frac       0.50445682      0.77753244      0.27391896 Cl
atom_frac       0.75440356      0.52748412      0.27387570 Cl
atom_frac       0.77763894      0.75424093      0.02389188 Cl
atom_frac       0.60909551      0.60541338      0.51249776 Li
atom_frac       0.65805028      0.60240510      0.73579588 Li
atom_frac       0.59882296      0.73705628      0.64754193 Li
atom_frac       0.61692633      0.50932964      0.61319103 Li
atom_frac       0.51026952      0.59821995      0.60649688 Li
atom_frac       0.73615589      0.65758035      0.59690855 Li
atom_frac       0.60571362      0.85909744      0.76254700 Li
atom_frac       0.60241622      0.90781237      0.98588414 Li
atom_frac       0.65759551      0.98626521      0.84707799 Li
atom_frac       0.59843533      0.76024492      0.85663839 Li
atom_frac       0.50956665      0.86684823      0.86319309 Li
atom_frac       0.73727637      0.84888297      0.89729883 Li
atom_frac       0.85590367      0.60922111      0.76253577 Li
atom_frac       0.85229685      0.65785213      0.98585423 Li
atom_frac       0.90760722      0.73622904      0.84724684 Li
atom_frac       0.84837814      0.51022037      0.85654620 Li
atom_frac       0.75952454      0.61672627      0.86303293 Li
atom_frac       0.98719925      0.59866247      0.89735055 Li
atom_frac       0.85915221      0.85546617      0.51257679 Li
atom_frac       0.90815119      0.85230546      0.73587534 Li
atom_frac       0.84869716      0.98701785      0.64754266 Li
atom_frac       0.86692860      0.75931580      0.61325653 Li
atom_frac       0.76030105      0.84816563      0.60653171 Li
atom_frac       0.98620387      0.90748123      0.59703024 Li
atom_frac       0.75432031      0.50143269      0.50315191 P
atom_frac       0.75156995      0.75419085      0.75310729 P
atom_frac       0.50155844      0.50421369      0.75312376 P
atom_frac       0.50429496      0.75145279      0.50314426 P
atom_frac       0.56123742      0.69025836      0.94404052 S
atom_frac       0.94715355      0.68941697      0.56152364 S
atom_frac       0.69294228      0.55819083      0.94412534 S
atom_frac       0.81401279      0.56575881      0.56151509 S
atom_frac       0.62597923      0.62571713      0.62606841 S
atom_frac       0.55818795      0.94271373      0.69409865 S
atom_frac       0.93961546      0.94711825      0.81164117 S
atom_frac       0.69036634      0.81112670      0.69400332 S
atom_frac       0.81593870      0.81396013      0.81135493 S
atom_frac       0.62591179      0.87600400      0.87610492 S
atom_frac       0.80813100      0.69264724      0.69405960 S
atom_frac       0.68960145      0.69713069      0.81163252 S
atom_frac       0.94036391      0.56107853      0.69395021 S
atom_frac       0.56591444      0.56402168      0.81135092 S
atom_frac       0.87586396      0.62596251      0.87611965 S
atom_frac       0.81132763      0.94028473      0.94405445 S
atom_frac       0.69720261      0.93939825      0.56156500 S
atom_frac       0.94290040      0.80822287      0.94414198 S
atom_frac       0.56401263      0.81574219      0.56153354 S
atom_frac       0.87601787      0.87569392      0.62615528 S
atom_frac       0.52765932      0.50421686      0.52381962 Cl
atom_frac       0.50445681      0.77753245      0.77391896 Cl
atom_frac       0.75440356      0.52748412      0.77387570 Cl
atom_frac       0.77763894      0.75424093      0.52389187 Cl
# 
# What follows is the current estimated Hessian matrix constructed by the BFGS algorithm.
# This is NOT the true Hessian matrix of the system.
# If you do not want this information here, switch it off using the "hessian_to_restart_geometry" keyword.
# 
trust_radius             0.8000000119
hessian_file
