# 
# This is the geometry file that corresponds to the current relaxation step.
# If you do not want this file to be written, set the "write_restart_geometry" flag to .false.
#  aims_uuid : E7F1C777-8C27-499D-ABA7-C24A064D56E7                                
# 
lattice_vector     24.77722988     -0.00849757     -0.07615048
lattice_vector     -0.14273187     14.33059633      0.12175341
lattice_vector     -7.96667533      0.00497808     22.86621054
atom_frac       0.49733775      0.17219620      0.19237714 Li
atom_frac       0.49919197      0.33566175      0.44902860 Li
atom_frac       0.25707190      0.42156358      0.19025929 Li
atom_frac       0.24883218      0.15921411      0.44994901 Li
atom_frac       0.41000129      0.00165441      0.44339319 Li
atom_frac       0.42615688      0.47886377      0.18908253 Li
atom_frac       0.14313662      0.25336055      0.44233057 Li
atom_frac       0.08710817      0.29066558      0.17885705 Li
atom_frac       0.40776345      0.26077753      0.18794023 Li
atom_frac       0.39726062      0.23760549      0.44336825 Li
atom_frac       0.15446085      0.04279877      0.18259962 Li
atom_frac       0.15593005      0.49513097      0.44022507 Li
atom_frac       0.35691579      0.36866664      0.02907356 Li
atom_frac       0.35908823      0.11911287      0.27314158 Li
atom_frac       0.10275283      0.11524390      0.02688200 Li
atom_frac       0.06028047      0.38766409      0.26706452 Li
atom_frac       0.49035522      0.44922534      0.08942366 Li
atom_frac       0.49085022      0.03382860      0.32873905 Li
atom_frac       0.24124939      0.21936547      0.07717162 Li
atom_frac       0.25172804      0.26996423      0.33269527 Li
atom_frac       0.49138210      0.22265015      0.32073708 Li
atom_frac       0.48506418      0.27016538      0.07851222 Li
atom_frac       0.25211815      0.47807374      0.34493547 Li
atom_frac       0.24448331      0.02381580      0.07054599 Li
atom_frac       0.37826636      0.37240225      0.30973592 P
atom_frac       0.37404273      0.11240693      0.06023651 P
atom_frac       0.12137034      0.12982282      0.30999936 P
atom_frac       0.12254983      0.37348670      0.06026650 P
atom_frac       0.34811872      0.48875934      0.33896221 S
atom_frac       0.34590478      0.99520020      0.09191134 S
atom_frac       0.09341377      0.24902192      0.33764071 S
atom_frac       0.09110342      0.25260793      0.08454130 S
atom_frac       0.34388317      0.23103933      0.08646954 S
atom_frac       0.34885460      0.25160133      0.33717939 S
atom_frac       0.09102735      0.48645058      0.09086593 S
atom_frac       0.09188841      0.01190590      0.34020861 S
atom_frac       0.46187504      0.11056223      0.09033715 S
atom_frac       0.46636861      0.37531570      0.34326862 S
atom_frac       0.21076490      0.37346370      0.09043730 S
atom_frac       0.20981574      0.12592296      0.34395432 S
atom_frac       0.35419130      0.37681034      0.22043090 S
atom_frac       0.34553558      0.10949584      0.46967044 S
atom_frac       0.09543322      0.13038087      0.22044159 S
atom_frac       0.09639568      0.38217689      0.47040227 S
atom_frac       0.44083706      0.12158983      0.24624709 S
atom_frac       0.43753559      0.36745896      0.50017859 S
atom_frac       0.18603850      0.12506785      0.50010850 S
atom_frac       0.49421309      0.34561546      0.17469229 S
atom_frac       0.18257748      0.38163112      0.24929805 I
atom_frac       0.49666362      0.13268562      0.43219440 I
atom_frac       0.25337448      0.11667015      0.18127915 I
atom_frac       0.24743873      0.36317575      0.43551107 I
atom_frac       0.49733758      0.17219633      0.69237725 Li
atom_frac       0.49919176      0.33566188      0.94902867 Li
atom_frac       0.25707164      0.42156393      0.69025969 Li
atom_frac       0.24883206      0.15921428      0.94994908 Li
atom_frac       0.41000097      0.00165447      0.94339322 Li
atom_frac       0.42615674      0.47886383      0.68908262 Li
atom_frac       0.14313644      0.25336082      0.94233065 Li
atom_frac       0.08710821      0.29066570      0.67885714 Li
atom_frac       0.40776326      0.26077767      0.68794029 Li
atom_frac       0.39726047      0.23760565      0.94336830 Li
atom_frac       0.15446056      0.04279895      0.68259965 Li
atom_frac       0.15592985      0.49513101      0.94022506 Li
atom_frac       0.35691584      0.36866664      0.52907340 Li
atom_frac       0.35908803      0.11911303      0.77314168 Li
atom_frac       0.10275285      0.11524400      0.52688188 Li
atom_frac       0.06028026      0.38766418      0.76706461 Li
atom_frac       0.49035523      0.44922531      0.58942366 Li
atom_frac       0.49084996      0.03382880      0.82873933 Li
atom_frac       0.24124951      0.21936558      0.57717193 Li
atom_frac       0.25172784      0.26996449      0.83269557 Li
atom_frac       0.49138186      0.22265029      0.82073731 Li
atom_frac       0.48506422      0.27016531      0.57851230 Li
atom_frac       0.25211816      0.47807417      0.84493618 Li
atom_frac       0.24448344      0.02381602      0.57054642 Li
atom_frac       0.37826607      0.37240245      0.80973591 P
atom_frac       0.37404280      0.11240689      0.56023650 P
atom_frac       0.12137004      0.12982311      0.80999947 P
atom_frac       0.12254993      0.37348675      0.56026657 P
atom_frac       0.34811845      0.48875955      0.83896218 S
atom_frac       0.34590478      0.99520017      0.59191131 S
atom_frac       0.09341347      0.24902221      0.83764078 S
atom_frac       0.09110341      0.25260795      0.58454126 S
atom_frac       0.34388321      0.23103937      0.58646942 S
atom_frac       0.34885434      0.25160154      0.83717940 S
atom_frac       0.09102735      0.48645072      0.59086584 S
atom_frac       0.09188810      0.01190609      0.84020861 S
atom_frac       0.46187512      0.11056218      0.59033731 S
atom_frac       0.46636831      0.37531586      0.84326864 S
atom_frac       0.21076500      0.37346395      0.59043764 S
atom_frac       0.20981543      0.12592332      0.84395442 S
atom_frac       0.35419098      0.37681047      0.72043085 S
atom_frac       0.34553541      0.10949599      0.96967043 S
atom_frac       0.09543298      0.13038103      0.72044166 S
atom_frac       0.09639543      0.38217715      0.97040220 S
atom_frac       0.44083691      0.12159000      0.74624725 S
atom_frac       0.43753540      0.36745919      0.00017860 S
atom_frac       0.18603824      0.12506789      0.00010826 S
atom_frac       0.49421304      0.34561555      0.67469227 S
atom_frac       0.18257724      0.38163123      0.74929807 I
atom_frac       0.49666352      0.13268442      0.93219394 I
atom_frac       0.25337398      0.11666934      0.68127870 I
atom_frac       0.24743864      0.36317506      0.93551133 I
atom_frac       0.49733776      0.67219618      0.19237716 Li
atom_frac       0.49919196      0.83566195      0.44902865 Li
atom_frac       0.25707189      0.92156324      0.19025927 Li
atom_frac       0.24883218      0.65921433      0.44994899 Li
atom_frac       0.41000132      0.50165449      0.44339320 Li
atom_frac       0.42615688      0.97886374      0.18908251 Li
atom_frac       0.14313662      0.75336065      0.44233056 Li
atom_frac       0.08710829      0.79066572      0.17885712 Li
atom_frac       0.40776346      0.76077752      0.18794025 Li
atom_frac       0.39726061      0.73760561      0.44336826 Li
atom_frac       0.15446083      0.54279848      0.18259973 Li
atom_frac       0.15593003      0.99513105      0.44022511 Li
atom_frac       0.35691580      0.86866668      0.02907360 Li
atom_frac       0.35908817      0.61911294      0.27314156 Li
atom_frac       0.10275285      0.61524400      0.02688202 Li
atom_frac       0.06028047      0.88766416      0.26706452 Li
atom_frac       0.49035525      0.94922535      0.08942368 Li
atom_frac       0.49085023      0.53382866      0.32873918 Li
atom_frac       0.24124939      0.71936546      0.07717164 Li
atom_frac       0.25172794      0.76996445      0.33269520 Li
atom_frac       0.49138212      0.72265025      0.32073709 Li
atom_frac       0.48506422      0.77016536      0.07851224 Li
atom_frac       0.25211824      0.97807389      0.34493552 Li
atom_frac       0.24448330      0.52381588      0.07054607 Li
atom_frac       0.37826638      0.87240226      0.30973592 P
atom_frac       0.37404270      0.61240693      0.06023651 P
atom_frac       0.12137032      0.62982285      0.30999937 P
atom_frac       0.12254986      0.87348671      0.06026650 P
atom_frac       0.34811873      0.98875934      0.33896219 S
atom_frac       0.34590475      0.49520017      0.09191135 S
atom_frac       0.09341379      0.74902198      0.33764070 S
atom_frac       0.09110348      0.75260795      0.08454136 S
atom_frac       0.34388315      0.73103933      0.08646953 S
atom_frac       0.34885456      0.75160139      0.33717940 S
atom_frac       0.09102735      0.98645056      0.09086592 S
atom_frac       0.09188839      0.51190590      0.34020860 S
atom_frac       0.46187501      0.61056220      0.09033715 S
atom_frac       0.46636862      0.87531572      0.34326863 S
atom_frac       0.21076491      0.87346364      0.09043724 S
atom_frac       0.20981575      0.62592300      0.34395430 S
atom_frac       0.35419132      0.87681028      0.22043090 S
atom_frac       0.34553555      0.60949585      0.46967042 S
atom_frac       0.09543326      0.63038091      0.22044161 S
atom_frac       0.09639569      0.88217692      0.47040229 S
atom_frac       0.44083708      0.62158982      0.24624717 S
atom_frac       0.43753558      0.86745901      0.50017866 S
atom_frac       0.18603847      0.62506784      0.50010841 S
atom_frac       0.49421312      0.84561544      0.17469231 S
atom_frac       0.18257735      0.88163162      0.24929802 I
atom_frac       0.49666345      0.63268565      0.43219409 I
atom_frac       0.25337416      0.61667036      0.18127892 I
atom_frac       0.24743852      0.86317638      0.43551119 I
atom_frac       0.49733760      0.67219631      0.69237725 Li
atom_frac       0.49919172      0.83566210      0.94902868 Li
atom_frac       0.25707161      0.92156362      0.69025975 Li
atom_frac       0.24883208      0.65921446      0.94994907 Li
atom_frac       0.41000098      0.50165456      0.94339320 Li
atom_frac       0.42615676      0.97886383      0.68908264 Li
atom_frac       0.14313648      0.75336090      0.94233067 Li
atom_frac       0.08710828      0.79066579      0.67885717 Li
atom_frac       0.40776326      0.76077766      0.68794028 Li
atom_frac       0.39726042      0.73760578      0.94336828 Li
atom_frac       0.15446063      0.54279884      0.68259971 Li
atom_frac       0.15592990      0.99513101      0.94022507 Li
atom_frac       0.35691585      0.86866673      0.52907344 Li
atom_frac       0.35908800      0.61911307      0.77314162 Li
atom_frac       0.10275280      0.61524405      0.52688182 Li
atom_frac       0.06028026      0.88766422      0.76706461 Li
atom_frac       0.49035526      0.94922532      0.58942369 Li
atom_frac       0.49084993      0.53382886      0.82873941 Li
atom_frac       0.24124948      0.71936560      0.57717185 Li
atom_frac       0.25172777      0.76996464      0.83269545 Li
atom_frac       0.49138185      0.72265037      0.82073726 Li
atom_frac       0.48506425      0.77016532      0.57851231 Li
atom_frac       0.25211827      0.97807437      0.84493619 Li
atom_frac       0.24448341      0.52381613      0.57054643 Li
atom_frac       0.37826611      0.87240244      0.80973590 P
atom_frac       0.37404277      0.61240689      0.56023648 P
atom_frac       0.12137005      0.62982313      0.80999947 P
atom_frac       0.12254994      0.87348673      0.56026658 P
atom_frac       0.34811852      0.98875953      0.83896220 S
atom_frac       0.34590474      0.49520013      0.59191126 S
atom_frac       0.09341351      0.74902224      0.83764078 S
atom_frac       0.09110343      0.75260794      0.58454128 S
atom_frac       0.34388319      0.73103937      0.58646939 S
atom_frac       0.34885428      0.75160158      0.83717935 S
atom_frac       0.09102733      0.98645068      0.59086584 S
atom_frac       0.09188810      0.51190610      0.84020861 S
atom_frac       0.46187509      0.61056217      0.59033729 S
atom_frac       0.46636834      0.87531587      0.84326861 S
atom_frac       0.21076499      0.87346390      0.59043763 S
atom_frac       0.20981545      0.62592332      0.84395441 S
atom_frac       0.35419099      0.87681044      0.72043084 S
atom_frac       0.34553538      0.60949599      0.96967043 S
atom_frac       0.09543302      0.63038105      0.72044167 S
atom_frac       0.09639546      0.88217718      0.97040220 S
atom_frac       0.44083693      0.62158996      0.74624726 S
atom_frac       0.43753540      0.86745920      0.00017868 S
atom_frac       0.18603827      0.62506787      0.00010825 S
atom_frac       0.49421306      0.84561552      0.67469229 S
atom_frac       0.18257698      0.88163128      0.74929798 I
atom_frac       0.49666376      0.63268478      0.93219383 I
atom_frac       0.25337405      0.61666952      0.68127881 I
atom_frac       0.24743868      0.86317509      0.93551125 I
atom_frac       0.99733781      0.17219617      0.19237711 Li
atom_frac       0.99919206      0.33566172      0.44902855 Li
atom_frac       0.75707216      0.42156354      0.19025884 Li
atom_frac       0.74883224      0.15921399      0.44994877 Li
atom_frac       0.91000148      0.00165445      0.44339311 Li
atom_frac       0.92615691      0.47886370      0.18908242 Li
atom_frac       0.64313678      0.25336072      0.44233036 Li
atom_frac       0.58710824      0.29066554      0.17885699 Li
atom_frac       0.90776348      0.26077736      0.18794011 Li
atom_frac       0.89726071      0.23760553      0.44336821 Li
atom_frac       0.65446112      0.04279904      0.18259950 Li
atom_frac       0.65593018      0.49513071      0.44022494 Li
atom_frac       0.85691603      0.36866660      0.02907349 Li
atom_frac       0.85908841      0.11911286      0.27314160 Li
atom_frac       0.60275265      0.11524400      0.02688164 Li
atom_frac       0.56028055      0.38766415      0.26706444 Li
atom_frac       0.99035516      0.44922533      0.08942366 Li
atom_frac       0.99085027      0.03382868      0.32873911 Li
atom_frac       0.74124949      0.21936544      0.07717133 Li
atom_frac       0.75172827      0.26996397      0.33269518 Li
atom_frac       0.99138210      0.22265011      0.32073707 Li
atom_frac       0.98506426      0.27016541      0.07851219 Li
atom_frac       0.75211822      0.47807347      0.34493517 Li
atom_frac       0.74448342      0.02381584      0.07054567 Li
atom_frac       0.87826649      0.37240221      0.30973582 P
atom_frac       0.87404284      0.11240688      0.06023634 P
atom_frac       0.62137034      0.12982270      0.30999918 P
atom_frac       0.62254987      0.37348675      0.06026627 P
atom_frac       0.84811881      0.48875926      0.33896210 S
atom_frac       0.84590488      0.99520016      0.09191118 S
atom_frac       0.59341384      0.24902189      0.33764053 S
atom_frac       0.59110348      0.25260797      0.08454114 S
atom_frac       0.84388325      0.23103925      0.08646934 S
atom_frac       0.84885482      0.25160124      0.33717933 S
atom_frac       0.59102752      0.48645066      0.09086581 S
atom_frac       0.59188843      0.01190582      0.34020851 S
atom_frac       0.96187514      0.11056226      0.09033708 S
atom_frac       0.96636873      0.37531577      0.34326855 S
atom_frac       0.71076495      0.37346366      0.09043692 S
atom_frac       0.70981574      0.12592278      0.34395405 S
atom_frac       0.85419144      0.37681020      0.22043079 S
atom_frac       0.84553567      0.10949579      0.46967027 S
atom_frac       0.59543315      0.13038065      0.22044141 S
atom_frac       0.59639562      0.38217680      0.47040205 S
atom_frac       0.94083715      0.12158975      0.24624706 S
atom_frac       0.93753572      0.36745900      0.50017851 S
atom_frac       0.68603840      0.12506783      0.50010819 S
atom_frac       0.99421301      0.34561547      0.17469227 S
atom_frac       0.68257781      0.38163136      0.24929777 I
atom_frac       0.99666329      0.13268542      0.43219426 I
atom_frac       0.75337448      0.11667036      0.18127912 I
atom_frac       0.74743867      0.36317570      0.43551160 I
atom_frac       0.99733760      0.17219629      0.69237718 Li
atom_frac       0.99919189      0.33566181      0.94902859 Li
atom_frac       0.75707188      0.42156401      0.69025929 Li
atom_frac       0.74883219      0.15921416      0.94994891 Li
atom_frac       0.91000126      0.00165454      0.94339314 Li
atom_frac       0.92615677      0.47886378      0.68908251 Li
atom_frac       0.64313672      0.25336112      0.94233050 Li
atom_frac       0.58710826      0.29066564      0.67885707 Li
atom_frac       0.90776327      0.26077755      0.68794014 Li
atom_frac       0.89726063      0.23760567      0.94336826 Li
atom_frac       0.65446087      0.04279907      0.68259962 Li
atom_frac       0.65593002      0.49513075      0.94022494 Li
atom_frac       0.85691600      0.36866662      0.52907332 Li
atom_frac       0.85908822      0.11911299      0.77314169 Li
atom_frac       0.60275268      0.11524405      0.52688154 Li
atom_frac       0.56028030      0.38766420      0.76706459 Li
atom_frac       0.99035515      0.44922530      0.58942364 Li
atom_frac       0.99085000      0.03382893      0.82873933 Li
atom_frac       0.74124958      0.21936553      0.57717162 Li
atom_frac       0.75172813      0.26996420      0.83269554 Li
atom_frac       0.99138185      0.22265025      0.82073722 Li
atom_frac       0.98506423      0.27016535      0.57851224 Li
atom_frac       0.75211829      0.47807403      0.84493588 Li
atom_frac       0.74448350      0.02381607      0.57054610 Li
atom_frac       0.87826624      0.37240245      0.80973583 P
atom_frac       0.87404285      0.11240684      0.56023632 P
atom_frac       0.62137006      0.12982300      0.80999933 P
atom_frac       0.62254998      0.37348674      0.56026636 P
atom_frac       0.84811865      0.48875954      0.83896216 S
atom_frac       0.84590482      0.99520014      0.59191115 S
atom_frac       0.59341355      0.24902217      0.83764067 S
atom_frac       0.59110349      0.25260794      0.58454112 S
atom_frac       0.84388324      0.23103930      0.58646924 S
atom_frac       0.84885459      0.25160148      0.83717936 S
atom_frac       0.59102753      0.48645073      0.59086575 S
atom_frac       0.59188815      0.01190603      0.84020855 S
atom_frac       0.96187516      0.11056223      0.59033722 S
atom_frac       0.96636848      0.37531591      0.84326854 S
atom_frac       0.71076506      0.37346391      0.59043732 S
atom_frac       0.70981546      0.12592312      0.84395425 S
atom_frac       0.85419110      0.37681040      0.72043077 S
atom_frac       0.84553556      0.10949594      0.96967026 S
atom_frac       0.59543295      0.13038083      0.72044152 S
atom_frac       0.59639534      0.38217711      0.97040195 S
atom_frac       0.94083697      0.12158992      0.74624716 S
atom_frac       0.93753559      0.36745922      0.00017853 S
atom_frac       0.68603818      0.12506789      0.00010798 S
atom_frac       0.99421295      0.34561552      0.67469223 S
atom_frac       0.68257733      0.38163060      0.74929798 I
atom_frac       0.99666341      0.13268458      0.93219417 I
atom_frac       0.75337429      0.11666952      0.68127885 I
atom_frac       0.74743881      0.36317496      0.93551150 I
atom_frac       0.99733782      0.67219615      0.19237710 Li
atom_frac       0.99919205      0.83566187      0.44902858 Li
atom_frac       0.75707209      0.92156322      0.19025886 Li
atom_frac       0.74883227      0.65921430      0.44994878 Li
atom_frac       0.91000146      0.50165450      0.44339310 Li
atom_frac       0.92615694      0.97886368      0.18908245 Li
atom_frac       0.64313680      0.75336082      0.44233040 Li
atom_frac       0.58710833      0.79066563      0.17885704 Li
atom_frac       0.90776348      0.76077738      0.18794009 Li
atom_frac       0.89726065      0.73760561      0.44336817 Li
atom_frac       0.65446116      0.54279875      0.18259962 Li
atom_frac       0.65593019      0.99513079      0.44022495 Li
atom_frac       0.85691602      0.86866665      0.02907350 Li
atom_frac       0.85908842      0.61911289      0.27314162 Li
atom_frac       0.60275263      0.61524407      0.02688165 Li
atom_frac       0.56028055      0.88766421      0.26706444 Li
atom_frac       0.99035517      0.94922533      0.08942366 Li
atom_frac       0.99085024      0.53382876      0.32873914 Li
atom_frac       0.74124947      0.71936543      0.07717136 Li
atom_frac       0.75172811      0.76996420      0.33269504 Li
atom_frac       0.99138208      0.72265016      0.32073701 Li
atom_frac       0.98506428      0.77016540      0.07851219 Li
atom_frac       0.75211834      0.97807375      0.34493519 Li
atom_frac       0.74448340      0.52381592      0.07054576 Li
atom_frac       0.87826650      0.87240225      0.30973581 P
atom_frac       0.87404280      0.61240687      0.06023631 P
atom_frac       0.62137035      0.62982275      0.30999921 P
atom_frac       0.62254988      0.87348675      0.06026628 P
atom_frac       0.84811888      0.98875934      0.33896210 S
atom_frac       0.84590482      0.49520014      0.09191115 S
atom_frac       0.59341390      0.74902198      0.33764054 S
atom_frac       0.59110353      0.75260799      0.08454119 S
atom_frac       0.84388321      0.73103925      0.08646933 S
atom_frac       0.84885471      0.75160135      0.33717931 S
atom_frac       0.59102751      0.98645067      0.09086579 S
atom_frac       0.59188844      0.51190583      0.34020851 S
atom_frac       0.96187510      0.61056225      0.09033705 S
atom_frac       0.96636873      0.87531573      0.34326855 S
atom_frac       0.71076494      0.87346363      0.09043688 S
atom_frac       0.70981578      0.62592278      0.34395410 S
atom_frac       0.85419143      0.87681020      0.22043078 S
atom_frac       0.84553562      0.60949579      0.46967025 S
atom_frac       0.59543320      0.63038066      0.22044144 S
atom_frac       0.59639563      0.88217687      0.47040207 S
atom_frac       0.94083715      0.62158974      0.24624704 S
atom_frac       0.93753569      0.86745900      0.50017855 S
atom_frac       0.68603844      0.62506780      0.50010815 S
atom_frac       0.99421305      0.84561541      0.17469228 S
atom_frac       0.68257728      0.88163156      0.24929791 I
atom_frac       0.99666351      0.63268570      0.43219445 I
atom_frac       0.75337425      0.61667064      0.18127908 I
atom_frac       0.74743872      0.86317633      0.43551121 I
atom_frac       0.99733761      0.67219626      0.69237718 Li
atom_frac       0.99919188      0.83566208      0.94902861 Li
atom_frac       0.75707185      0.92156364      0.69025930 Li
atom_frac       0.74883221      0.65921439      0.94994894 Li
atom_frac       0.91000131      0.50165465      0.94339315 Li
atom_frac       0.92615678      0.97886378      0.68908253 Li
atom_frac       0.64313675      0.75336121      0.94233052 Li
atom_frac       0.58710833      0.79066571      0.67885712 Li
atom_frac       0.90776327      0.76077753      0.68794015 Li
atom_frac       0.89726061      0.73760578      0.94336825 Li
atom_frac       0.65446087      0.54279891      0.68259968 Li
atom_frac       0.65593001      0.99513078      0.94022495 Li
atom_frac       0.85691602      0.86866668      0.52907337 Li
atom_frac       0.85908817      0.61911305      0.77314163 Li
atom_frac       0.60275274      0.61524412      0.52688160 Li
atom_frac       0.56028031      0.88766424      0.76706458 Li
atom_frac       0.99035514      0.94922530      0.58942364 Li
atom_frac       0.99084999      0.53382900      0.82873942 Li
atom_frac       0.74124955      0.71936556      0.57717159 Li
atom_frac       0.75172805      0.76996435      0.83269545 Li
atom_frac       0.99138186      0.72265035      0.82073717 Li
atom_frac       0.98506424      0.77016534      0.57851225 Li
atom_frac       0.75211834      0.97807417      0.84493583 Li
atom_frac       0.74448349      0.52381616      0.57054620 Li
atom_frac       0.87826626      0.87240244      0.80973582 P
atom_frac       0.87404281      0.61240683      0.56023630 P
atom_frac       0.62137006      0.62982304      0.80999937 P
atom_frac       0.62255000      0.87348679      0.56026637 P
atom_frac       0.84811867      0.98875952      0.83896213 S
atom_frac       0.84590478      0.49520009      0.59191111 S
atom_frac       0.59341359      0.74902223      0.83764069 S
atom_frac       0.59110353      0.75260799      0.58454116 S
atom_frac       0.84388321      0.73103930      0.58646922 S
atom_frac       0.84885454      0.75160151      0.83717934 S
atom_frac       0.59102752      0.98645079      0.59086574 S
atom_frac       0.59188812      0.51190604      0.84020855 S
atom_frac       0.96187512      0.61056219      0.59033720 S
atom_frac       0.96636849      0.87531593      0.84326852 S
atom_frac       0.71076506      0.87346388      0.59043727 S
atom_frac       0.70981547      0.62592315      0.84395429 S
atom_frac       0.85419111      0.87681035      0.72043076 S
atom_frac       0.84553554      0.60949594      0.96967023 S
atom_frac       0.59543299      0.63038082      0.72044156 S
atom_frac       0.59639534      0.88217710      0.97040197 S
atom_frac       0.94083698      0.62158989      0.74624719 S
atom_frac       0.93753557      0.86745923      0.00017858 S
atom_frac       0.68603818      0.62506789      0.00010797 S
atom_frac       0.99421297      0.84561548      0.67469224 S
atom_frac       0.68257709      0.88163106      0.74929803 I
atom_frac       0.99666332      0.63268498      0.93219398 I
atom_frac       0.75337405      0.61666985      0.68127878 I
atom_frac       0.74743870      0.86317525      0.93551122 I
# 
# What follows is the current estimated Hessian matrix constructed by the BFGS algorithm.
# This is NOT the true Hessian matrix of the system.
# If you do not want this information here, switch it off using the "hessian_to_restart_geometry" keyword.
# 
trust_radius             0.2000000030
hessian_file
