#=======================================================
# FHI-aims file: geometry.in.primitive
# Created using the Atomic Simulation Environment (ASE)
# Wed Feb 16 09:06:17 2022

# Additional information:
#  Number of atoms:     104
#=======================================================
lattice_vector 12.3522723699999997 -0.0000000400000000 -0.0279832100000000 
lattice_vector 0.0000000400000000 14.2636918200000000 -0.0000006600000000 
lattice_vector -3.9878312100000000 -0.0000000800000000 11.4389972499999999 
atom 10.7125725297314975 2.2959891015109597 4.4670972463966798 Li
atom 8.7186554700208490 4.8358579811391200 10.1865939283912006 Li
atom 4.5364301466065902 5.8619146439756200 4.4810749845049198 Li
atom 2.5425111586255604 1.2699319794455297 10.2005707435268000 Li
atom 6.5535392795977998 0.0880674960193738 10.0698579712327003 Li
atom 8.5474538556043687 7.0437758227524796 4.3503609698518400 Li
atom 0.3774090083609274 3.6539880461916998 10.0838544270420005 Li
atom 2.3713220334404999 3.4778531730262396 4.3643607309196302 Li
atom 8.2623504636509111 3.6517372566039001 4.3438595097752399 Li
atom 6.2684354524565000 3.4801109851043197 10.0633560839769007 Li
atom 2.0862182087142598 0.0858113262285842 4.3578537854413204 Li
atom 0.0923050392584353 7.0460393803071995 10.0773472823244994 Li
atom 8.5197148705713364 5.3566231661897499 0.5610990864198580 Li
atom 6.5258002281585794 1.7752226391958801 6.2805965033370308 Li
atom 2.3435829045593497 1.7907036544758097 0.5750861605543530 Li
atom 0.3496681187455330 5.3411426188206192 6.2945833621416201 Li
atom 11.5457772764588995 6.6608889936718194 1.7047038830330798 Li
atom 9.5518597857083094 0.4709577718697470 7.4242014270865697 Li
atom 5.3696245478524292 3.0949766138037798 1.7187009482713398 Li
atom 3.3757104803086100 4.0368724026100393 7.4381968973200401 Li
atom 9.5282287473033200 3.2221943502433801 7.3825579859902399 Li
atom 11.5221459639144008 3.9096498486646198 1.6630596684330301 Li
atom 3.3520861082429501 6.7881235299493099 7.3965530982220189 Li
atom 5.3460012205187990 0.3437201384109910 1.6770564869829001 Li
atom 6.7401425398957997 5.3852959922625603 7.0833707320669204 P
atom 8.7340597727036986 1.7465505118602598 1.3638569555751601 P
atom 0.5639564612683664 1.8193841829424398 7.0973498135156099 P
atom 2.5578651054769295 5.3124605069010604 1.3778281827515000 P
atom 5.7624345037978495 7.0624575318804288 7.7537872842487703 S
atom 7.7563530089658794 0.0693952437352278 2.0342922909018202 S
atom -0.4136967796224661 3.4965629103085298 7.7677982454586294 S
atom 1.5802239436268199 3.6352868386129993 2.0483079463185900 S
atom 7.7728128178872984 3.4538789755274402 1.9842473856266400 S
atom 5.7788954375441195 3.6779609634720098 7.7037418894946894 S
atom 1.5966984635298302 7.0198221336511990 1.9982495203578701 S
atom -0.3972233826310747 0.1120194143540650 7.7177408210108496 S
atom 10.6613330353092977 1.7232568924777898 2.0903284091403900 S
atom 8.6674233075302602 5.4085885175043193 7.8098213639418903 S
atom 4.4851411050214098 5.2891860008656089 2.1043013446099699 S
atom 2.4912420278505110 1.8426608754863201 7.8237951767365992 S
atom 6.8055291550774504 5.4244845035612288 5.0296513093414603 S
atom 4.8116125078195218 1.7073608124295498 10.7491353640228997 S
atom 0.6294106384916109 1.8585580026383000 5.0436334381234103 S
atom -1.3645008785676596 5.2732880665371500 10.7631102932498006 S
atom 8.7950562959793093 1.8215588101432301 5.6762553895130701 S
atom 6.8011405684640902 5.3102868389687403 11.3957567108754994 S
atom 2.6189277501727894 5.3874827122831297 5.6902514985144999 S
atom 0.6250124325429927 1.7443630481471599 11.4097547490978997 S
atom 10.7867256333513986 5.2409679814450598 4.1477992940202002 I
atom 8.7928159645990025 1.8908746841686701 9.8672958888710500 I
atom 4.6105957652248302 1.6750441193050500 4.1617934499794096 I
atom 2.6166771956218096 5.4568008684993297 9.8812873347473698 I
atom 10.7125725497314974 9.4278350115109593 4.4670969163966801 Li
atom 8.7186554900208488 11.9677038911391005 10.1865935983911999 Li
atom 4.5364301666065900 12.9937605539755978 4.4810746545049200 Li
atom 2.5425111786255603 8.4017778894455208 10.2005704135267994 Li
atom 6.5535392995977890 7.2199134060193702 10.0698576412326997 Li
atom 8.5474538756043703 14.1756217327524983 4.3503606398518402 Li
atom 0.3774090283609273 10.7858339561916985 10.0838540970419999 Li
atom 2.3713220534404997 10.6096990830262001 4.3643604009196402 Li
atom 8.2623504836509110 10.7835831666039006 4.3438591797752402 Li
atom 6.2684354724564999 10.6119568951042993 10.0633557539769001 Li
atom 2.0862182287142499 7.2176572362285807 4.3578534554413197 Li
atom 0.0923050592584339 14.1778852903072003 10.0773469523245005 Li
atom 8.5197148905713505 12.4884690761897001 0.5610987564198580 Li
atom 6.5258002481585793 8.9070685491958681 6.2805961733370301 Li
atom 2.3435829245593500 8.9225495644758084 0.5750858305543530 Li
atom 0.3496681387455329 12.4729885288205988 6.2945830321416203 Li
atom 11.5457772964588994 13.7927349036717981 1.7047035530330799 Li
atom 9.5518598057083093 7.6028036818697400 7.4242010970865699 Li
atom 5.3696245678524290 10.2268225238037989 1.7187006182713398 Li
atom 3.3757105003086099 11.1687183126099985 7.4381965673200403 Li
atom 9.5282287673033181 10.3540402602433979 7.3825576559902402 Li
atom 11.5221459839144007 11.0414957586646008 1.6630593384330301 Li
atom 3.3520861282429495 13.9199694399493001 7.3965527682220209 Li
atom 5.3460012405187989 7.4755660484109887 1.6770561569829001 Li
atom 6.7401425598958005 12.5171419022625976 7.0833704020669188 P
atom 8.7340597927036985 8.8783964218602591 1.3638566255751601 P
atom 0.5639564812683663 8.9512300929424509 7.0973494835156101 P
atom 2.5578651254769298 12.4443064169010977 1.3778278527515000 P
atom 5.7624345237978583 14.1943034418803986 7.7537869542487696 S
atom 7.7563530289658793 7.2012411537352303 2.0342919609018200 S
atom -0.4136967596224675 10.6284088203084988 7.7677979154586296 S
atom 1.5802239636268200 10.7671327486129975 2.0483076163185898 S
atom 7.7728128378873000 10.5857248855273980 1.9842470556266401 S
atom 5.7788954575441194 10.8098068734720005 7.7037415594946896 S
atom 1.5966984835298301 14.1516680436512008 1.9982491903578701 S
atom -0.3972233626310748 7.2438653243540596 7.7177404910108498 S
atom 10.6613330553092975 8.8551028024777896 2.0903280791403902 S
atom 8.6674233275302708 12.5404344275042980 7.8098210339418896 S
atom 4.4851411250214088 12.4210319108656009 2.1043010146099701 S
atom 2.4912420478505104 8.9745067854863105 7.8237948467366003 S
atom 6.8055291750774503 12.5563304135612004 5.0296509793414597 S
atom 4.8116125278195190 8.8392067224295374 10.7491350340229008 S
atom 0.6294106584916124 8.9904039126382980 5.0436331081234096 S
atom -1.3645008585676597 12.4051339765372006 10.7631099632498000 S
atom 8.7950563159793091 8.9534047201432294 5.6762550595130703 S
atom 6.8011405884640999 12.4421327489687013 11.3957563808755005 S
atom 2.6189277701727907 12.5193286222830977 5.6902511685144903 S
atom 0.6250124525429930 8.8762089581471493 11.4097544190979008 S
atom 10.7867256533513984 12.3728138914450998 4.1477989640202004 I
atom 8.7928159845990024 9.0227205941686695 9.8672955588710494 I
atom 4.6105957852248300 8.8068900293050518 4.1617931199794098 I
atom 2.6166772156218090 12.5886467784992977 9.8812870047473709 I
