#=======================================================
# FHI-aims file: ./geometry.in
# Created using the Atomic Simulation Environment (ASE)
# Tue Feb 15 15:09:59 2022
#=======================================================
lattice_vector 12.3522723699999997 -0.0000000400000000 -0.0279832100000000 
lattice_vector 0.0000000400000000 14.2636918200000000 -0.0000006600000000 
lattice_vector -3.9878312100000000 -0.0000000800000000 11.4389972499999999 
atom_frac 0.9949244255632977 0.1609673850000000 0.3929466700000000 Li
atom_frac 0.9941146899999999 0.3390327099999997 0.8929465100000000 Li
atom_frac 0.4941139700000000 0.4109675650000000 0.3929454700000000 Li
atom_frac 0.4941136100000000 0.0890324950000000 0.8929451999999999 Li
atom_frac 0.8153981100000000 0.0061742500000000 0.8823042100000000 Li
atom_frac 0.8153980799999995 0.4938255800000002 0.3823043800000000 Li
atom_frac 0.3153987300000001 0.2561740800000000 0.8823046500000000 Li
atom_frac 0.3153986600000001 0.2438255999999998 0.3823050799999999 Li
atom_frac 0.7921151500000000 0.2560162799999999 0.3816790500000000 Li
atom_frac 0.7921151399999999 0.2439838950000000 0.8816788700000000 Li
atom_frac 0.2921155400000000 0.0060160700000000 0.3816792700000000 Li
atom_frac 0.2921156000000001 0.4939842749999999 0.8816788500000000 Li
atom_frac 0.7061220799999995 0.3755425500000001 0.0507788300000000 Li
atom_frac 0.7061221200000000 0.1244574500000000 0.5507787100000000 Li
atom_frac 0.2061222900000000 0.1255427899999999 0.0507784200000000 Li
atom_frac 0.2061223200000000 0.3744572399999999 0.5507783100000000 Li
atom_frac 0.9835973099999998 0.4669821199999998 0.1514318400000000 Li
atom_frac 0.9835971199999997 0.0330179500000000 0.6514317200000000 Li
atom_frac 0.4835961199999999 0.2169828600000000 0.1514323000000000 Li
atom_frac 0.4835961699999999 0.2830173649999997 0.6514320700000000 Li
atom_frac 0.9805062899999999 0.2259018549999998 0.6477836900000000 Li
atom_frac 0.9805064299999999 0.2740980350000000 0.1477837200000000 Li
atom_frac 0.4805058699999999 0.4759022899999997 0.6477840100000000 Li
atom_frac 0.4805058799999999 0.0240975600000000 0.1477841600000000 Li
atom_frac 0.7461628399999998 0.3775527500000000 0.6210553999999999 P
atom_frac 0.7461625400000000 0.1224472999999999 0.1210540600000000 P
atom_frac 0.2461584400000001 0.1275535300000000 0.6210542800000000 P
atom_frac 0.2461572299999999 0.3724463900000002 0.1210522800000000 P
atom_frac 0.6858842699999997 0.4951353199999996 0.6795159300000000 S
atom_frac 0.6858846000000000 0.0048651700000000 0.1795162200000000 S
atom_frac 0.1858852100000001 0.2451373049999999 0.6795176100000000 S
atom_frac 0.1858858600000000 0.2548629699999999 0.1795183400000000 S
atom_frac 0.6858046599999996 0.2421448149999999 0.1751411000000000 S
atom_frac 0.6858043999999996 0.2578547750000000 0.6751407400000000 S
atom_frac 0.1858067300000000 0.4921462299999995 0.1751420400000000 S
atom_frac 0.1858060100000000 0.0078534700000000 0.6751413699999999 S
atom_frac 0.9228310199999998 0.1208142299999999 0.1849945599999999 S
atom_frac 0.9228313399999994 0.3791857449999998 0.6849940799999999 S
atom_frac 0.4228259799999999 0.3708146599999999 0.1849929300000000 S
atom_frac 0.4228271800000001 0.1291854150000000 0.6849925000000000 S
atom_frac 0.6934527399999999 0.3803001799999999 0.4413897899999999 S
atom_frac 0.6934522400000001 0.1196997899999999 0.9413885000000001 S
atom_frac 0.1934539000000000 0.1302999300000000 0.4413889500000000 S
atom_frac 0.1934536200000000 0.3697000900000000 0.9413870600000001 S
atom_frac 0.8729091999999999 0.1277059900000000 0.4983550700000000 S
atom_frac 0.8729092700000001 0.3722940049999998 0.9983553200000002 S
atom_frac 0.3729099499999998 0.3777060549999999 0.4983554800000001 S
atom_frac 0.3729101000000001 0.1222939450000000 0.9983558700000003 S
atom_frac 0.9911041599999995 0.3674341899999998 0.3650262100000000 I
atom_frac 0.9911045800000002 0.1325655950000000 0.8650260199999996 I
atom_frac 0.4911047400000001 0.1174341249999999 0.3650264200000000 I
atom_frac 0.4911043700000000 0.3825658199999999 0.8650260199999997 I
atom_frac 0.9941148599999997 0.6609673849999996 0.3929466700000000 Li
atom_frac 0.9941146899999999 0.8390327100000000 0.8929465099999999 Li
atom_frac 0.4941139699999998 0.9109675649999994 0.3929454700000000 Li
atom_frac 0.4941136100000000 0.5890324949999994 0.8929451999999999 Li
atom_frac 0.8153981099999995 0.5061742499999998 0.8823042099999999 Li
atom_frac 0.8153980799999997 0.9938255799999993 0.3823043800000000 Li
atom_frac 0.3153987300000000 0.7561740799999997 0.8823046500000000 Li
atom_frac 0.3153986600000000 0.7438256000000000 0.3823050800000000 Li
atom_frac 0.7921151500000000 0.7560162800000000 0.3816790500000000 Li
atom_frac 0.7921151399999999 0.7439838949999996 0.8816788700000000 Li
atom_frac 0.2921155399999999 0.5060160699999999 0.3816792700000000 Li
atom_frac 0.2921156000000000 0.9939842749999996 0.8816788500000000 Li
atom_frac 0.7061220799999998 0.8755425499999998 0.0507788300000000 Li
atom_frac 0.7061221200000000 0.6244574499999993 0.5507787100000000 Li
atom_frac 0.2061222900000001 0.6255427899999997 0.0507784200000000 Li
atom_frac 0.2061223200000000 0.8744572399999999 0.5507783100000000 Li
atom_frac 0.9835973099999998 0.9669821199999993 0.1514318400000000 Li
atom_frac 0.9835971199999997 0.5330179499999996 0.6514317200000000 Li
atom_frac 0.4835961199999999 0.7169828599999999 0.1514323000000000 Li
atom_frac 0.4835961699999999 0.7830173649999999 0.6514320700000000 Li
atom_frac 0.9805062899999999 0.7259018550000000 0.6477836900000000 Li
atom_frac 0.9805064299999999 0.7740980349999997 0.1477837200000000 Li
atom_frac 0.4805058699999999 0.9759022899999996 0.6477840100000000 Li
atom_frac 0.4805058799999999 0.5240975600000000 0.1477841600000000 Li
atom_frac 0.7461628399999998 0.8775527499999994 0.6210553999999999 P
atom_frac 0.7461625400000000 0.6224472999999999 0.1210540600000000 P
atom_frac 0.2461584400000001 0.6275535300000000 0.6210542800000000 P
atom_frac 0.2461572299999999 0.8724463899999995 0.1210522800000000 P
atom_frac 0.6858842699999999 0.9951353199999992 0.6795159299999999 S
atom_frac 0.6858846000000000 0.5048651699999999 0.1795162199999999 S
atom_frac 0.1858852100000001 0.7451373049999994 0.6795176100000000 S
atom_frac 0.1858858600000000 0.7548629699999994 0.1795183400000000 S
atom_frac 0.6858046599999997 0.7421448149999996 0.1751411000000000 S
atom_frac 0.6858043999999996 0.7578547749999998 0.6751407400000000 S
atom_frac 0.1858067300000000 0.9921462299999999 0.1751420400000000 S
atom_frac 0.1858060100000000 0.5078534699999999 0.6751413700000000 S
atom_frac 0.9228310199999995 0.6208142299999999 0.1849945600000000 S
atom_frac 0.9228313399999997 0.8791857449999995 0.6849940799999999 S
atom_frac 0.4228259799999999 0.8708146599999999 0.1849929299999999 S
atom_frac 0.4228271800000001 0.6291854149999995 0.6849925000000001 S
atom_frac 0.6934527399999997 0.8803001799999997 0.4413897899999999 S
atom_frac 0.6934522400000001 0.6196997899999996 0.9413884999999997 S
atom_frac 0.1934539000000001 0.6302999299999996 0.4413889500000000 S
atom_frac 0.1934536200000000 0.8697000899999996 0.9413870600000001 S
atom_frac 0.8729091999999999 0.6277059899999999 0.4983550700000000 S
atom_frac 0.8729092700000001 0.8722940050000001 0.9983553199999998 S
atom_frac 0.3729099499999999 0.8777060549999993 0.4983554800000001 S
atom_frac 0.3729100999999999 0.6222939449999998 0.9983558699999998 S
atom_frac 0.9911041599999995 0.8674341899999997 0.3650262100000000 I
atom_frac 0.9911045800000000 0.6325655949999996 0.8650260199999998 I
atom_frac 0.4911047400000001 0.6174341249999999 0.3650264200000000 I
atom_frac 0.4911043700000000 0.8825658199999994 0.8650260199999998 I
